 !Step 3: single point gmcpt calculation averaging 4 states
 !        for AsH3+ at AsH3 structure. The ROHF orbitals at
 !        the MP2 optimized structure is taken as the initial
 !        guess of orbitals in the $VEC group.
 $system kdiag=3 mwords=250 memddi=8000 parall=.t. $end
 $contrl runtyp=energy ispher=1 relwfn=dk $end
 $contrl icut=9 itol=20 inttyp=rysquad qmttol=1.0d-05 nosym=1 $end
 $scf    npunch=2 conv=1.0d-06 dirscf=.t. diis=.t. soscf=.f. ethrsh=10.0 $end
 $contrl scftyp=mcscf  mult=2 maxit=200 icharg=1 mplevl=2 $end
 $relwfn norder=3 $end
 $guess  guess=moread norb=85 purify=.t. $end
 $basis  gbasis=cct $end
 $mcscf  cistep=gmcci fullnr=.t. finci=mos
         acurcy=1.d-6 maxit=200 $end
 $trans  dirtrf=.t. $end
 $mrmp   mrpt=gmcpt rdvecs=.f. $end
 $gmcpt  nmofzc=5 nmodoc=9 nmoact=7 nelact=7 stsym(1)=A
         reftyp=ormas nspace=1 mstart(1)=15 mine(1)=7 maxe(1)=7
         kstate(1)=1,1,1,1
         wstate(1)=1,1,1,1
         iwgt=0 thrwgt=-1.0 krot=.f. kszdoe=.f. knospn=.f.
         thrde=-1.0 edshft=0.02 $end
 $statpt hssend=.t. $end
 -data
 AsH3+ 3 states calculation at AsH3 structure.
 C1
  AS         33.0   0.0000000000  -0.0000000000   0.0000000000
 H           1.0  -0.7325148768   1.2687529838   0.0000000000
 H           1.0  -0.7325148768  -1.2687529838   0.0000000000
 H           1.0   1.4650297535   0.0000000000   0.0000000000
 $end
 --- Semi-canonical MOs --- generated at Sat Dec  9 01:18:05 2023
 $VEC   
 1  1 1.00000651E+00-6.68369440E-06 1.85152951E-04 1.79685598E-04-8.07714337E-05
 1  2-2.31149954E-05-0.00000000E+00-0.00000000E+00-0.00000000E+00 1.52132035E-11
 1  3 2.42575930E-11-0.00000000E+00 4.01053631E-11 5.28975585E-11-0.00000000E+00
 1  4-0.00000000E+00-0.00000000E+00-0.00000000E+00-0.00000000E+00-0.00000000E+00
 1  5-0.00000000E+00-1.11237345E-06-1.11237452E-06 2.22474797E-06-0.00000000E+00
 1  6-0.00000000E+00-0.00000000E+00 8.58528525E-06 8.58528010E-06-1.71705654E-05
 1  7-1.20100248E-11-0.00000000E+00-0.00000000E+00 1.00552420E-05 1.00552075E-05
 1  8-2.01104495E-05-2.83298525E-11-0.00000000E+00-0.00000000E+00 1.99730861E-05
 1  9-0.00000000E+00-0.00000000E+00-0.00000000E+00-0.00000000E+00-2.67966997E-05
 1 10-0.00000000E+00-0.00000000E+00-0.00000000E+00-0.00000000E+00 3.47117215E-06
 1 11-4.60716982E-05 1.04466843E-06-4.03421058E-07 6.98737131E-07-0.00000000E+00
 1 12-1.34256909E-05 2.32539851E-05-0.00000000E+00 1.05460937E-06-3.02016560E-06
 1 13 1.96555623E-06 4.07477672E-06-0.00000000E+00-0.00000000E+00 3.47116073E-06
 1 14-4.60716058E-05 1.04468814E-06-4.03422118E-07-6.98738938E-07-0.00000000E+00
 1 15-1.34256677E-05-2.32539402E-05-0.00000000E+00 1.05460761E-06-3.02016073E-06
 1 16 1.96555312E-06-4.07477055E-06-0.00000000E+00-0.00000000E+00 3.47117151E-06
 1 17-4.60717176E-05 1.04469110E-06 8.06835201E-07-0.00000000E+00-0.00000000E+00
 1 18 2.68513910E-05-0.00000000E+00-0.00000000E+00-5.05755289E-06 3.09200369E-06
 1 19 1.96554920E-06-0.00000000E+00-0.00000000E+00-0.00000000E+00
 2  1 4.09666559E-05 9.99990075E-01-3.16108765E-04-2.84854825E-04-1.90234414E-04
 2  2-7.06893358E-05 8.88136173E-11 0.00000000E+00 0.00000000E+00 0.00000000E+00
 2  3-1.20640601E-11 0.00000000E+00-4.23702411E-11 0.00000000E+00 0.00000000E+00
 2  4 0.00000000E+00 0.00000000E+00 0.00000000E+00 1.59692740E-11 0.00000000E+00
 2  5 0.00000000E+00 2.18681038E-06 2.18681647E-06-4.37362685E-06 0.00000000E+00
 2  6 0.00000000E+00 0.00000000E+00-2.12785843E-05-2.12786355E-05 4.25572198E-05
 2  7 0.00000000E+00 0.00000000E+00 0.00000000E+00-2.43628025E-05-2.43627278E-05
 2  8 4.87255303E-05 0.00000000E+00 0.00000000E+00 0.00000000E+00-5.04976121E-05
 2  9 0.00000000E+00 0.00000000E+00 0.00000000E+00 0.00000000E+00 6.77496582E-05
 2 10 0.00000000E+00 0.00000000E+00 0.00000000E+00 0.00000000E+00-2.26407134E-06
 2 11 1.13641652E-04 2.32014758E-05 2.48858913E-06-4.31025865E-06 0.00000000E+00
 2 12 3.40634277E-05-5.89996663E-05 0.00000000E+00-3.35702434E-06 1.09213347E-05
 2 13-7.56431039E-06-1.42783328E-05 0.00000000E+00 0.00000000E+00-2.26406969E-06
 2 14 1.13641642E-04 2.32014727E-05 2.48858986E-06 4.31025943E-06 0.00000000E+00
 2 15 3.40634241E-05 5.89996606E-05 0.00000000E+00-3.35702472E-06 1.09213337E-05
 2 16-7.56430897E-06 1.42783321E-05 0.00000000E+00 0.00000000E+00-2.26400895E-06
 2 17 1.13641623E-04 2.32014920E-05-4.97709972E-06 0.00000000E+00 0.00000000E+00
 2 18-6.81269085E-05 0.00000000E+00 0.00000000E+00 1.80604308E-05-1.04961453E-05
 2 19-7.56428548E-06 0.00000000E+00 0.00000000E+00 0.00000000E+00
 3  1 0.00000000E+00 0.00000000E+00 0.00000000E+00 0.00000000E+00 0.00000000E+00
 3  2 0.00000000E+00 0.00000000E+00 0.00000000E+00 1.00002352E+00 0.00000000E+00
 3  3 0.00000000E+00-3.89165550E-06 0.00000000E+00 0.00000000E+00-4.92507547E-06
 3  4 0.00000000E+00 0.00000000E+00-4.17685173E-04 0.00000000E+00 0.00000000E+00
 3  5-6.46134207E-05 0.00000000E+00 0.00000000E+00 0.00000000E+00 0.00000000E+00
 3  6 0.00000000E+00 0.00000000E+00 0.00000000E+00 0.00000000E+00 0.00000000E+00
 3  7 0.00000000E+00 0.00000000E+00 0.00000000E+00 0.00000000E+00 0.00000000E+00
 3  8 0.00000000E+00 0.00000000E+00-1.93074776E-11 0.00000000E+00 0.00000000E+00
 3  9 0.00000000E+00-1.85215669E-07 0.00000000E+00 1.24199303E-07 0.00000000E+00
 3 10 1.24293593E-07 0.00000000E+00 0.00000000E+00 0.00000000E+00 0.00000000E+00
 3 11 0.00000000E+00 0.00000000E+00 0.00000000E+00 0.00000000E+00 9.77050335E-07
 3 12 0.00000000E+00 0.00000000E+00-4.31055591E-06 0.00000000E+00 0.00000000E+00
 3 13 0.00000000E+00 0.00000000E+00 2.92263382E-06-5.06214832E-06 0.00000000E+00
 3 14 0.00000000E+00 0.00000000E+00 0.00000000E+00 0.00000000E+00 9.77057694E-07
 3 15 0.00000000E+00 0.00000000E+00-4.31055927E-06 0.00000000E+00 0.00000000E+00
 3 16 0.00000000E+00 0.00000000E+00 2.92261115E-06 5.06217122E-06 0.00000000E+00
 3 17 0.00000000E+00 0.00000000E+00 0.00000000E+00 0.00000000E+00 9.77103933E-07
 3 18 0.00000000E+00 0.00000000E+00-4.31057630E-06 0.00000000E+00 0.00000000E+00
 3 19 0.00000000E+00 0.00000000E+00-5.84530848E-06 0.00000000E+00
 4  1 0.00000000E+00-1.22100833E-10-1.03655494E-10-1.21566074E-10 6.96512803E-11
 4  2 6.13100593E-11 9.99975646E-01 9.72307615E-03 0.00000000E+00-5.49318902E-06
 4  3-5.34046586E-08 0.00000000E+00-8.50555011E-05-8.27005434E-07 0.00000000E+00
 4  4-4.69490855E-04-4.56500717E-06 0.00000000E+00-8.43096231E-05-8.19765621E-07
 4  5 0.00000000E+00 1.50489531E-06-1.50489492E-06 0.00000000E+00-1.68958437E-08
 4  6 0.00000000E+00 0.00000000E+00-5.25674128E-05 5.25674042E-05 0.00000000E+00
 4  7 5.90198149E-07 0.00000000E+00 0.00000000E+00-1.48695942E-05 1.48696334E-05
 4  8-3.87871817E-11 1.66940934E-07 0.00000000E+00 0.00000000E+00-1.23712464E-05
 4  9-1.20288772E-07 0.00000000E+00-5.37943424E-08 0.00000000E+00-5.53270140E-06
 4 10 0.00000000E+00 2.21304701E-05 2.15178666E-07 0.00000000E+00 6.60224500E-06
 4 11-3.21478792E-05-2.16476431E-05-4.31484539E-06 6.54848055E-06 0.00000000E+00
 4 12-1.77017042E-05 2.78585006E-05 0.00000000E+00 4.51838849E-06-1.46065998E-05
 4 13 1.00882113E-05 1.25965835E-05 0.00000000E+00 0.00000000E+00 6.82843239E-06
 4 14-3.32492251E-05-2.23892732E-05-4.44447536E-06-6.78333367E-06 0.00000000E+00
 4 15-1.82530411E-05-2.88447240E-05 0.00000000E+00 4.56198000E-06-1.49958071E-05
 4 16 1.04338271E-05-1.31022720E-05 0.00000000E+00 0.00000000E+00-1.34307220E-05
 4 17 6.53970334E-05 4.40369268E-05-1.59252967E-05-5.16425770E-09 0.00000000E+00
 4 18-6.70838382E-05-1.56397125E-08 0.00000000E+00 3.92058449E-05-1.86838254E-05
 4 19-2.05220194E-05-3.64443953E-08 0.00000000E+00 0.00000000E+00
 5  1 0.00000000E+00 0.00000000E+00 0.00000000E+00 0.00000000E+00 0.00000000E+00
 5  2 0.00000000E+00-9.72307615E-03 9.99975646E-01 0.00000000E+00 5.33987129E-08
 5  3-5.49318871E-06 0.00000000E+00 8.26993635E-07-8.50555015E-05 0.00000000E+00
 5  4 4.56500898E-06-4.69490856E-04 0.00000000E+00 8.19764608E-07-8.43096237E-05
 5  5 0.00000000E+00-1.46321402E-08 1.46320341E-08 0.00000000E+00-1.73770346E-06
 5  6 0.00000000E+00 0.00000000E+00 5.11125455E-07-5.11125155E-07 0.00000000E+00
 5  7 6.06996157E-05 0.00000000E+00 0.00000000E+00 1.44570300E-07-1.44570190E-07
 5  8 0.00000000E+00 1.71699509E-05 0.00000000E+00 0.00000000E+00 1.20286342E-07
 5  9-1.23712861E-05 0.00000000E+00-5.53264866E-06 0.00000000E+00 5.37956757E-08
 5 10 0.00000000E+00-2.15176738E-07 2.21304707E-05 0.00000000E+00-1.16966274E-05
 5 11 5.69534405E-05 3.83511834E-05 6.70848188E-06-1.21415721E-05 0.00000000E+00
 5 12 2.85263977E-05-5.09906901E-05 0.00000000E+00-2.28578517E-06 2.01581516E-05
 5 13-1.78723665E-05-2.61289304E-05 0.00000000E+00 0.00000000E+00 1.15660398E-05
 5 14-5.63175866E-05-3.79230056E-05-6.62331132E-06-1.20119422E-05 0.00000000E+00
 5 15-2.81768069E-05-5.04393561E-05 0.00000000E+00 2.19749432E-06-1.98703189E-05
 5 16 1.76728246E-05-2.58790536E-05 0.00000000E+00 0.00000000E+00 1.30588035E-07
 5 17-6.35851056E-07-4.28178560E-07 1.54847745E-07-5.31102737E-07 0.00000000E+00
 5 18 6.52263246E-07-1.60853841E-06 0.00000000E+00-3.81208692E-07 1.81667836E-07
 5 19 1.99540856E-07-3.74814396E-06 0.00000000E+00 0.00000000E+00
 6  1-6.83468763E-05-3.19440211E-04 9.80077536E-01-9.86029559E-04 2.99904189E-02
 6  2 3.07748636E-03-1.71947525E-11-0.00000000E+00-0.00000000E+00-1.34151914E-10
 6  3-1.14876784E-11-0.00000000E+00-2.22318281E-10-3.75831794E-11-0.00000000E+00
 6  4 5.90062421E-11-0.00000000E+00-0.00000000E+00-1.07016810E-10-0.00000000E+00
 6  5-0.00000000E+00 3.06903970E-04 3.06904033E-04-6.13808003E-04-0.00000000E+00
 6  6-0.00000000E+00-0.00000000E+00 5.23136602E-05 5.23135657E-05-1.04627226E-04
 6  7-0.00000000E+00-0.00000000E+00-0.00000000E+00-1.05372952E-06-1.05341507E-06
 6  8 2.10714459E-06 2.03579872E-11-0.00000000E+00-0.00000000E+00 7.05431761E-05
 6  9-0.00000000E+00-0.00000000E+00-0.00000000E+00-0.00000000E+00-9.46437013E-05
 6 10-0.00000000E+00 9.43798633E-11-0.00000000E+00-0.00000000E+00 2.63523423E-05
 6 11 2.25003581E-04-4.96348241E-04 4.09150577E-06-7.08656695E-06-0.00000000E+00
 6 12-8.84000634E-06 1.53111951E-05-0.00000000E+00-4.91082507E-06 3.17277197E-05
 6 13-2.68168947E-05-3.66385402E-05-0.00000000E+00-0.00000000E+00 2.63523479E-05
 6 14 2.25003520E-04-4.96348263E-04 4.09150670E-06 7.08657067E-06-0.00000000E+00
 6 15-8.84002628E-06-1.53112286E-05-0.00000000E+00-4.91082561E-06 3.17277182E-05
 6 16-2.68168926E-05 3.66385341E-05-0.00000000E+00-0.00000000E+00 2.63524064E-05
 6 17 2.25003837E-04-4.96348190E-04-8.18296535E-06-0.00000000E+00-0.00000000E+00
 6 18 1.76800070E-05-0.00000000E+00-0.00000000E+00 5.00469022E-05-2.32300251E-05
 6 19-2.68168771E-05-0.00000000E+00-0.00000000E+00-0.00000000E+00
 7  1-1.57808261E-11-1.26400287E-10-3.84313740E-10-6.22128839E-10 1.23034347E-10
 7  2-1.26043186E-10-9.77950489E-05-7.67078879E-07-0.00000000E+00 9.75547370E-01
 7  3 7.65194255E-03-0.00000000E+00-1.00297290E-03-7.86705289E-06-0.00000000E+00
 7  4 4.58901102E-02 3.59950215E-04-0.00000000E+00 1.93794052E-03 1.52007098E-05
 7  5-0.00000000E+00 6.12150607E-04-6.12150581E-04-2.90428293E-11-5.54435420E-06
 7  6-0.00000000E+00-0.00000000E+00-3.61855679E-04 3.61855550E-04 1.30458489E-10
 7  7 3.27738794E-06-0.00000000E+00-0.00000000E+00-2.10503244E-04 2.10503101E-04
 7  8 1.42619123E-10 1.90655913E-06-0.00000000E+00-0.00000000E+00 4.70744687E-05
 7  9 3.69241406E-07-0.00000000E+00 1.65130756E-07-0.00000000E+00 2.10525746E-05
 7 10-0.00000000E+00-8.42096019E-05-6.60520086E-07-0.00000000E+00-2.07870693E-04
 7 11-9.80455950E-04 3.13653761E-04 5.81971842E-06 3.17862513E-05-0.00000000E+00
 7 12-5.28485578E-05 2.74786996E-04-0.00000000E+00 3.40204314E-06-5.48034007E-05
 7 13 5.14013576E-05 1.11192437E-04-0.00000000E+00-0.00000000E+00-2.13596647E-04
 7 14-1.00746334E-03 3.22293596E-04 5.31720621E-06-3.22791482E-05-0.00000000E+00
 7 15-5.72055064E-05-2.80681201E-04-0.00000000E+00 4.22224781E-06-5.70394941E-05
 7 16 5.28172463E-05-1.13770987E-04-0.00000000E+00-0.00000000E+00 4.21467189E-04
 7 17 1.98791985E-03-6.35947317E-04-4.99138293E-05 1.88740388E-07-0.00000000E+00
 7 18-5.36077085E-04 8.26125496E-07-0.00000000E+00 2.50698715E-04-1.46480113E-04
 7 19-1.04218602E-04 2.38874786E-07-0.00000000E+00-0.00000000E+00
 8  1-0.00000000E+00 2.18081421E-11 3.30597550E-11 5.08605427E-11-1.94224279E-11
 8  2-0.00000000E+00 7.67078705E-07-9.77950499E-05-0.00000000E+00-7.65194255E-03
 8  3 9.75547370E-01-0.00000000E+00 7.86704804E-06-1.00297291E-03-0.00000000E+00
 8  4-3.59950216E-04 4.58901102E-02-0.00000000E+00-1.52007127E-05 1.93794053E-03
 8  5-0.00000000E+00-4.80155385E-06 4.80154923E-06-0.00000000E+00-7.06850617E-04
 8  6-0.00000000E+00-0.00000000E+00 2.83829954E-06-2.83829964E-06-0.00000000E+00
 8  7 4.17834855E-04-0.00000000E+00-0.00000000E+00 1.65112724E-06-1.65112775E-06
 8  8-0.00000000E+00 2.43068150E-04-0.00000000E+00-0.00000000E+00-3.69235529E-07
 8  9 4.70746377E-05-0.00000000E+00 2.10523521E-05-0.00000000E+00-1.65139231E-07
 8 10-0.00000000E+00 6.60520677E-07-8.42096060E-05-0.00000000E+00 3.66654277E-04
 8 11 1.72938527E-03-5.53240653E-04 3.19890190E-05-3.16709956E-05-0.00000000E+00
 8 12 2.78165791E-04-3.77905468E-04-0.00000000E+00-5.23139594E-05 1.42978649E-04
 8 13-9.06646895E-05-1.65252200E-04-0.00000000E+00-0.00000000E+00-3.63348394E-04
 8 14-1.71379258E-03 5.48252437E-04-3.20763737E-05-3.11684815E-05-0.00000000E+00
 8 15-2.77302567E-04-3.73548538E-04-0.00000000E+00 5.22541577E-05-1.42101384E-04
 8 16 8.98472264E-05-1.63487648E-04-0.00000000E+00-0.00000000E+00-3.30587982E-06
 8 17-1.55927367E-05 4.98821657E-06 3.91512352E-07 2.40625715E-05-0.00000000E+00
 8 18 4.20484947E-06 1.05322869E-04-0.00000000E+00-1.96641579E-06 1.14895265E-06
 8 19 8.17463144E-07 3.04541462E-05-0.00000000E+00-0.00000000E+00
 9  1-0.00000000E+00-0.00000000E+00-0.00000000E+00-0.00000000E+00-0.00000000E+00
 9  2-0.00000000E+00-0.00000000E+00-0.00000000E+00 3.79066913E-05-0.00000000E+00
 9  3-0.00000000E+00 9.76861047E-01-0.00000000E+00-0.00000000E+00 4.70738558E-04
 9  4-0.00000000E+00-0.00000000E+00 4.47747317E-02-0.00000000E+00-0.00000000E+00
 9  5 1.55142392E-03-0.00000000E+00-0.00000000E+00-0.00000000E+00-0.00000000E+00
 9  6 7.75010072E-11-0.00000000E+00-0.00000000E+00-0.00000000E+00-0.00000000E+00
 9  7-0.00000000E+00 3.54477677E-11-0.00000000E+00-0.00000000E+00-0.00000000E+00
 9  8-0.00000000E+00-0.00000000E+00-2.71095843E-11-0.00000000E+00-0.00000000E+00
 9  9-0.00000000E+00-2.15447070E-04-0.00000000E+00 1.44526322E-04-0.00000000E+00
 9 10 1.44526255E-04-0.00000000E+00-0.00000000E+00-0.00000000E+00-0.00000000E+00
 9 11-0.00000000E+00-0.00000000E+00-0.00000000E+00-0.00000000E+00 1.18652886E-05
 9 12-0.00000000E+00-0.00000000E+00 1.16795437E-04-0.00000000E+00-0.00000000E+00
 9 13-0.00000000E+00-0.00000000E+00-1.44497486E-05 2.50276478E-05-0.00000000E+00
 9 14-0.00000000E+00-0.00000000E+00-0.00000000E+00-0.00000000E+00 1.18652888E-05
 9 15-0.00000000E+00-0.00000000E+00 1.16795434E-04-0.00000000E+00-0.00000000E+00
 9 16-0.00000000E+00-0.00000000E+00-1.44497426E-05-2.50276547E-05-0.00000000E+00
 9 17-0.00000000E+00-0.00000000E+00-0.00000000E+00-0.00000000E+00 1.18652704E-05
 9 18-0.00000000E+00-0.00000000E+00 1.16795404E-04-0.00000000E+00-0.00000000E+00
 9 19-0.00000000E+00-0.00000000E+00 2.88994385E-05-0.00000000E+00
10  1 0.00000000E+00-1.57863793E-11-3.40088680E-11 5.70854655E-11 1.21609022E-10
10  2-3.14825650E-11 1.59079030E-04-2.00161431E-05 0.00000000E+00 4.09257854E-04
10  3-5.14949314E-05 0.00000000E+00 3.33337619E-03-4.19422563E-04 0.00000000E+00
10  4-1.79106733E-03 2.25361317E-04 0.00000000E+00-2.38347532E-03 2.99901148E-04
10  5 0.00000000E+00 8.29702211E-01-8.29702203E-01-8.73241634E-09 1.20547740E-01
10  6 0.00000000E+00 0.00000000E+00 7.41172370E-02-7.41172362E-02-8.11562981E-10
10  7 1.07685207E-02 0.00000000E+00 0.00000000E+00 5.36818885E-04-5.36818873E-04
10  8-1.15640996E-11 7.79946061E-05 0.00000000E+00 0.00000000E+00 3.21845266E-04
10  9-4.04962314E-05 0.00000000E+00-1.81104586E-05 0.00000000E+00 1.43933570E-04
10 10 0.00000000E+00-5.75734305E-04 7.24418543E-05 0.00000000E+00-3.44865793E-03
10 11-2.36287393E-03-1.00385523E-03-8.40681300E-04 6.99974657E-04 0.00000000E+00
10 12-9.25676890E-04-1.52712810E-04 0.00000000E+00-1.22086344E-04-2.14043654E-04
10 13 3.36129998E-04 6.99306306E-04 0.00000000E+00 0.00000000E+00-2.21446261E-03
10 14-1.51725571E-03-6.44598533E-04-7.08290803E-04-3.52203635E-04 0.00000000E+00
10 15-9.85653237E-04 3.23951478E-04 0.00000000E+00-1.95585974E-04-2.02508321E-05
10 16 2.15836807E-04-5.27168352E-04 0.00000000E+00 0.00000000E+00 5.66312061E-03
10 17 3.88012969E-03 1.64845376E-03-1.68569920E-03 5.92319819E-05 0.00000000E+00
10 18-5.42861693E-04 1.37560390E-04 0.00000000E+00 1.17499495E-03-6.23028138E-04
10 19-5.51966815E-04-4.75772335E-05 0.00000000E+00 0.00000000E+00
11  1-0.00000000E+00 1.11100263E-11 3.81770106E-11 3.26195438E-11-2.83400371E-11
11  2-8.78036180E-11-2.00161396E-05-1.59079029E-04-0.00000000E+00-5.14948932E-05
11  3-4.09257838E-04-0.00000000E+00-4.19422480E-04-3.33337617E-03-0.00000000E+00
11  4 2.25361311E-04 1.79106732E-03-0.00000000E+00 2.99901193E-04 2.38347531E-03
11  5-0.00000000E+00-1.04397406E-01 1.04397404E-01 1.61133414E-09 9.58057585E-01
11  6-0.00000000E+00-0.00000000E+00-9.32581253E-03 9.32581238E-03 1.46358022E-10
11  7 8.55832131E-02-0.00000000E+00-0.00000000E+00-6.75452738E-05 6.75452542E-05
11  8 1.95522929E-11 6.19865005E-04-0.00000000E+00-0.00000000E+00-4.04962241E-05
11  9-3.21845268E-04-0.00000000E+00-1.43933558E-04-0.00000000E+00-1.81104549E-05
11 10-0.00000000E+00 7.24418409E-05 5.75734296E-04-0.00000000E+00-4.54812480E-03
11 11-3.11618191E-03-1.32389430E-03-4.28639358E-04 1.31576623E-03-0.00000000E+00
11 12 3.58578826E-04 7.10450947E-04-0.00000000E+00 3.12056085E-04-7.55347708E-04
11 13 4.43291623E-04 6.06875675E-04-0.00000000E+00-0.00000000E+00 5.26068779E-03
11 14 3.60439989E-03 1.53131136E-03 6.23539002E-04 1.44815672E-03-0.00000000E+00
11 15-1.18085388E-04 6.50474634E-04-0.00000000E+00-2.72084919E-04 7.84827847E-04
11 16-5.12742928E-04 7.61197036E-04-0.00000000E+00-0.00000000E+00-7.12563000E-04
11 17-4.88217969E-04-2.07416971E-04 2.12103356E-04 4.70748359E-04-0.00000000E+00
11 18 6.83056865E-05 1.09326625E-03-0.00000000E+00-1.47843921E-04 7.83926122E-05
11 19 6.94513085E-05-3.78121814E-04-0.00000000E+00-0.00000000E+00
12  1-5.10966630E-05-3.38439587E-04-4.11922163E-04-6.82080350E-04 7.56215224E-04
12  2 3.84723026E-03 0.00000000E+00 0.00000000E+00 0.00000000E+00-2.60121044E-11
12  3-1.11461706E-11 0.00000000E+00 1.15055754E-10-1.01008101E-11 0.00000000E+00
12  4 6.81191728E-11 0.00000000E+00 0.00000000E+00-1.02311353E-10 0.00000000E+00
12  5 0.00000000E+00-4.83553876E-01-4.83553892E-01 9.67107768E-01-5.09287234E-10
12  6 0.00000000E+00 0.00000000E+00-4.19285382E-02-4.19285395E-02 8.38570777E-02
12  7-4.34388429E-11 0.00000000E+00 0.00000000E+00-8.26210430E-04-8.26210421E-04
12  8 1.65242085E-03 0.00000000E+00 0.00000000E+00 0.00000000E+00-7.57469363E-04
12  9 0.00000000E+00 0.00000000E+00 0.00000000E+00 0.00000000E+00 1.01625179E-03
12 10 0.00000000E+00 0.00000000E+00 0.00000000E+00 0.00000000E+00-2.78547607E-03
12 11-1.35901407E-03-3.49816591E-04-4.69718222E-04 8.13575796E-04 0.00000000E+00
12 12-1.20882966E-04 2.09375435E-04 0.00000000E+00-4.49921571E-06-4.48336346E-04
12 13 4.52835561E-04 4.43837149E-04 0.00000000E+00 0.00000000E+00-2.78547607E-03
12 14-1.35901409E-03-3.49816579E-04-4.69718222E-04-8.13575794E-04 0.00000000E+00
12 15-1.20882970E-04-2.09375441E-04 0.00000000E+00-4.49921268E-06-4.48336346E-04
12 16 4.52835559E-04-4.43837151E-04 0.00000000E+00 0.00000000E+00-2.78547595E-03
12 17-1.35901396E-03-3.49816491E-04 9.39436439E-04 0.00000000E+00 0.00000000E+00
12 18 2.41765941E-04 0.00000000E+00 0.00000000E+00-6.70254952E-04 2.17419388E-04
12 19 4.52835564E-04 0.00000000E+00 0.00000000E+00 0.00000000E+00
13  1-0.00000000E+00-0.00000000E+00-0.00000000E+00-0.00000000E+00-0.00000000E+00
13  2-0.00000000E+00-0.00000000E+00-0.00000000E+00-0.00000000E+00-0.00000000E+00
13  3-0.00000000E+00-5.54421587E-11-0.00000000E+00-0.00000000E+00 6.78046818E-11
13  4-0.00000000E+00-0.00000000E+00-3.95289919E-11-0.00000000E+00-0.00000000E+00
13  5 2.56952614E-10-0.00000000E+00-0.00000000E+00-0.00000000E+00-0.00000000E+00
13  6 9.58680890E-01-1.29187553E-01-0.00000000E+00-0.00000000E+00-0.00000000E+00
13  7-0.00000000E+00 8.33392948E-02-1.12304310E-02-0.00000000E+00-0.00000000E+00
13  8-0.00000000E+00-0.00000000E+00 1.50148372E-03-2.02333238E-04-0.00000000E+00
13  9-0.00000000E+00-5.94475906E-11-0.00000000E+00 2.24180113E-04-0.00000000E+00
13 10-2.24180026E-04-0.00000000E+00-0.00000000E+00 3.48829313E-05-0.00000000E+00
13 11-0.00000000E+00-0.00000000E+00-0.00000000E+00-0.00000000E+00-2.91208605E-04
13 12-0.00000000E+00-0.00000000E+00-7.40284339E-04-0.00000000E+00-0.00000000E+00
13 13-0.00000000E+00-0.00000000E+00-7.63702770E-05 3.07625405E-04-0.00000000E+00
13 14-0.00000000E+00-0.00000000E+00-0.00000000E+00-0.00000000E+00-1.80994705E-04
13 15-0.00000000E+00-0.00000000E+00-4.60108568E-04-0.00000000E+00-0.00000000E+00
13 16-0.00000000E+00-0.00000000E+00-5.91855989E-06-2.15185897E-04-0.00000000E+00
13 17-0.00000000E+00-0.00000000E+00-0.00000000E+00-0.00000000E+00 4.72203494E-04
13 18-0.00000000E+00-0.00000000E+00 1.20039259E-03-0.00000000E+00-0.00000000E+00
13 19-0.00000000E+00-0.00000000E+00-4.93912284E-04-1.47932192E-05
14  1 0.00000000E+00 0.00000000E+00 0.00000000E+00 0.00000000E+00 0.00000000E+00
14  2 0.00000000E+00 0.00000000E+00 0.00000000E+00 0.00000000E+00 0.00000000E+00
14  3 0.00000000E+00 0.00000000E+00 0.00000000E+00 0.00000000E+00 0.00000000E+00
14  4 0.00000000E+00 0.00000000E+00 0.00000000E+00 0.00000000E+00 0.00000000E+00
14  5 3.29934993E-11 0.00000000E+00 0.00000000E+00 0.00000000E+00 0.00000000E+00
14  6 1.29187553E-01 9.58680890E-01 0.00000000E+00 0.00000000E+00 0.00000000E+00
14  7 0.00000000E+00 1.12304310E-02 8.33392948E-02 0.00000000E+00 0.00000000E+00
14  8 0.00000000E+00 0.00000000E+00 2.02333235E-04 1.50148372E-03 0.00000000E+00
14  9 0.00000000E+00 0.00000000E+00 0.00000000E+00 3.02095083E-05 0.00000000E+00
14 10-3.02094981E-05 0.00000000E+00 0.00000000E+00-2.58860848E-04 0.00000000E+00
14 11 0.00000000E+00 0.00000000E+00 0.00000000E+00 0.00000000E+00 3.77124165E-04
14 12 0.00000000E+00 0.00000000E+00 9.58690776E-04 0.00000000E+00 0.00000000E+00
14 13 0.00000000E+00 0.00000000E+00 2.55861216E-04-3.07763802E-04 0.00000000E+00
14 14 0.00000000E+00 0.00000000E+00 0.00000000E+00 0.00000000E+00-4.40756171E-04
14 15 0.00000000E+00 0.00000000E+00-1.12045037E-03 0.00000000E+00 0.00000000E+00
14 16 0.00000000E+00 0.00000000E+00-2.66950093E-04-3.78215518E-04 0.00000000E+00
14 17 0.00000000E+00 0.00000000E+00 0.00000000E+00 0.00000000E+00 6.36320325E-05
14 18 0.00000000E+00 0.00000000E+00 1.61759546E-04 0.00000000E+00 0.00000000E+00
14 19 0.00000000E+00 0.00000000E+00-6.65574130E-05 1.09778199E-04
15  1 4.20330157E-04 2.47995302E-03 3.82908150E-03 5.53476906E-01 2.67083510E-01
15  2 1.26534818E-01 6.15254789E-11-0.00000000E+00-0.00000000E+00 6.39490272E-10
15  3-7.13016018E-11-0.00000000E+00 9.68781038E-10-1.63740145E-10-0.00000000E+00
15  4-0.00000000E+00-0.00000000E+00-0.00000000E+00 1.34288524E-11-2.25713895E-11
15  5-0.00000000E+00-1.33347357E-02-1.33347355E-02 2.66694712E-02-1.60194071E-11
15  6-0.00000000E+00-0.00000000E+00 8.44854006E-03 8.44853987E-03-1.68970799E-02
15  7 2.87777792E-11-0.00000000E+00-0.00000000E+00 4.41088640E-03 4.41088567E-03
15  8-8.82177207E-03 6.40372248E-11-0.00000000E+00-0.00000000E+00 1.34473916E-02
15  9-2.12462583E-11-0.00000000E+00-0.00000000E+00-0.00000000E+00-1.80415688E-02
15 10-0.00000000E+00-2.07408691E-10 2.44624225E-11-0.00000000E+00 7.29997439E-02
15 11 1.04288641E-01 9.28656138E-03 3.44627159E-03-5.96911757E-03-0.00000000E+00
15 12 6.06275659E-03-1.05010026E-02-0.00000000E+00 2.66947026E-05 1.47992295E-03
15 13-1.50661765E-03-1.45322826E-03-0.00000000E+00-0.00000000E+00 7.29997440E-02
15 14 1.04288641E-01 9.28656132E-03 3.44627159E-03 5.96911758E-03-0.00000000E+00
15 15 6.06275653E-03 1.05010025E-02-0.00000000E+00 2.66947010E-05 1.47992294E-03
15 16-1.50661764E-03 1.45322824E-03-0.00000000E+00-0.00000000E+00 7.29997439E-02
15 17 1.04288640E-01 9.28656108E-03-6.89254328E-03-0.00000000E+00-0.00000000E+00
15 18-1.21255125E-02-0.00000000E+00-0.00000000E+00 2.20653685E-03-6.99919364E-04
15 19-1.50661748E-03-0.00000000E+00-0.00000000E+00-0.00000000E+00
16  1-1.03117118E-11-9.03376136E-11-3.51991227E-10-5.10281663E-10 1.06768498E-10
16  2-3.26029819E-11-3.98344358E-03 1.19720126E-04 0.00000000E+00-5.31509244E-02
16  3 1.59742076E-03 0.00000000E+00 3.61973009E-01-1.08788930E-02 0.00000000E+00
16  4 1.70585272E-01-5.12684331E-03 0.00000000E+00 6.54944849E-02-1.96839953E-03
16  5 0.00000000E+00-5.42838336E-02 5.42838337E-02-1.06202288E-10-1.88385900E-03
16  6 0.00000000E+00 0.00000000E+00 2.75484716E-02-2.75484716E-02-1.05495903E-11
16  7 9.56038538E-04 0.00000000E+00 0.00000000E+00 2.06934619E-02-2.06934619E-02
16  8 0.00000000E+00 7.18143241E-04 0.00000000E+00 0.00000000E+00 7.71564609E-03
16  9-2.31889363E-04 0.00000000E+00-1.03704081E-04 0.00000000E+00 3.45054191E-03
16 10 0.00000000E+00-1.38021674E-02 4.14816308E-04 0.00000000E+00-8.53416985E-02
16 11-1.49737194E-01-4.28617630E-02-1.54394040E-03 6.00521236E-03 0.00000000E+00
16 12-2.87586176E-03 1.46960796E-02 0.00000000E+00 1.44039322E-03-2.58455095E-03
16 13 1.14415773E-03 9.25163445E-04 0.00000000E+00 0.00000000E+00-7.68962709E-02
16 14-1.34919179E-01-3.86201564E-02-1.19747387E-03-5.52275562E-03 0.00000000E+00
16 15-2.02640467E-03-1.35678762E-02 0.00000000E+00 1.45393746E-03-2.48486917E-03
16 16 1.03093171E-03-7.29551946E-04 0.00000000E+00 0.00000000E+00 1.62237969E-01
16 17 2.84656373E-01 8.14819196E-02-1.13542205E-02-5.88204431E-05 0.00000000E+00
16 18-2.69284373E-02-1.71549744E-04 0.00000000E+00 4.31951901E-03-2.14442967E-03
16 19-2.17508934E-03 5.47369850E-05 0.00000000E+00 0.00000000E+00
17  1 1.30039844E-11 0.00000000E+00-1.64789373E-11 1.33089408E-11 1.06547635E-11
17  2-1.95523183E-11-1.19720133E-04-3.98344357E-03 0.00000000E+00-1.59742083E-03
17  3-5.31509243E-02 0.00000000E+00 1.08788929E-02 3.61973009E-01 0.00000000E+00
17  4 5.12684333E-03 1.70585272E-01 0.00000000E+00 1.96839946E-03 6.54944848E-02
17  5 0.00000000E+00-1.63146976E-03 1.63146975E-03 0.00000000E+00 6.26815720E-02
17  6 0.00000000E+00 0.00000000E+00 8.27953640E-04-8.27953639E-04 0.00000000E+00
17  7-3.18102350E-02 0.00000000E+00 0.00000000E+00 6.21930215E-04-6.21930212E-04
17  8 0.00000000E+00-2.38947517E-02 0.00000000E+00 0.00000000E+00 2.31889354E-04
17  9 7.71564605E-03 0.00000000E+00 3.45054196E-03 0.00000000E+00 1.03704069E-04
17 10 0.00000000E+00-4.14816284E-04-1.38021674E-02 0.00000000E+00 1.38064218E-01
17 11 2.42242058E-01 6.93409659E-02 5.72278825E-03-7.85314940E-03 0.00000000E+00
17 12 1.40583106E-02-1.83446073E-02 0.00000000E+00 2.68822205E-04 1.58217491E-03
17 13-1.85099712E-03-3.22942147E-03 0.00000000E+00 0.00000000E+00-1.42940188E-01
17 14-2.50797243E-01-7.17898587E-02-5.80517990E-03-8.19961592E-03 0.00000000E+00
17 15-1.42056454E-02-1.91940644E-02 0.00000000E+00-1.81834738E-04-1.73453345E-03
17 16 1.91636819E-03-3.27915300E-03 0.00000000E+00 0.00000000E+00 4.87596991E-03
17 17 8.55518549E-03 2.44889281E-03-3.41244637E-04 1.95713056E-03 0.00000000E+00
17 18-8.09318912E-04 5.70796803E-03 0.00000000E+00 1.29820690E-04-6.44496120E-05
17 19-6.53710782E-05-1.82126171E-03 0.00000000E+00 0.00000000E+00
18  1 0.00000000E+00 0.00000000E+00 0.00000000E+00 0.00000000E+00 0.00000000E+00
18  2 0.00000000E+00 0.00000000E+00 0.00000000E+00-2.78572625E-04 0.00000000E+00
18  3 0.00000000E+00-1.55080610E-03 0.00000000E+00 0.00000000E+00 6.09955035E-01
18  4 0.00000000E+00 0.00000000E+00 2.31759447E-01 0.00000000E+00 0.00000000E+00
18  5 2.94111036E-01 0.00000000E+00 0.00000000E+00 0.00000000E+00 0.00000000E+00
18  6-2.02927887E-10 0.00000000E+00 0.00000000E+00 0.00000000E+00 0.00000000E+00
18  7 0.00000000E+00 1.61208032E-10 0.00000000E+00 0.00000000E+00 0.00000000E+00
18  8 0.00000000E+00 0.00000000E+00-2.09320167E-10 0.00000000E+00 0.00000000E+00
18  9 0.00000000E+00-1.47347243E-02 0.00000000E+00 9.88435353E-03 0.00000000E+00
18 10 9.88435357E-03 0.00000000E+00 0.00000000E+00-1.13503255E-11 0.00000000E+00
18 11 0.00000000E+00 0.00000000E+00 0.00000000E+00 0.00000000E+00 4.51160056E-03
18 12 0.00000000E+00 0.00000000E+00 2.34104360E-02 0.00000000E+00 0.00000000E+00
18 13 0.00000000E+00 0.00000000E+00 1.33487381E-03-2.31206908E-03 0.00000000E+00
18 14 0.00000000E+00 0.00000000E+00 0.00000000E+00 0.00000000E+00 4.51160054E-03
18 15 0.00000000E+00 0.00000000E+00 2.34104361E-02 0.00000000E+00 0.00000000E+00
18 16 0.00000000E+00 0.00000000E+00 1.33487381E-03 2.31206909E-03 0.00000000E+00
18 17 0.00000000E+00 0.00000000E+00 0.00000000E+00 0.00000000E+00 4.51160064E-03
18 18 0.00000000E+00 0.00000000E+00 2.34104362E-02 0.00000000E+00 0.00000000E+00
18 19 0.00000000E+00 0.00000000E+00-2.66974727E-03 1.01328479E-11
19  1 1.43000752E-03 1.06870201E-02 6.75431072E-02 4.94018256E-01 2.82616911E-01
19  2 6.20341485E-01 0.00000000E+00 0.00000000E+00 0.00000000E+00-1.67900926E-10
19  3 2.02323675E-11 0.00000000E+00-1.35564872E-10 2.63261454E-11 0.00000000E+00
19  4 8.06164067E-11-3.52019240E-11 0.00000000E+00 1.65567199E-10-3.12761933E-11
19  5 0.00000000E+00 5.70314460E-02 5.70314460E-02-1.14062892E-01 0.00000000E+00
19  6 0.00000000E+00 0.00000000E+00-4.55190524E-02-4.55190524E-02 9.10381048E-02
19  7-1.13318654E-11 0.00000000E+00 0.00000000E+00-8.65692925E-02-8.65692926E-02
19  8 1.73138585E-01 0.00000000E+00 0.00000000E+00 0.00000000E+00-4.32184671E-02
19  9 0.00000000E+00 0.00000000E+00 1.34356582E-11 0.00000000E+00 5.79836582E-02
19 10 0.00000000E+00-1.33188370E-11-1.03605148E-11 0.00000000E+00-1.40650326E-01
19 11-3.28132866E-01-2.98785266E-01 6.07176254E-04-1.05166018E-03 0.00000000E+00
19 12-3.39642384E-04 5.88277827E-04 0.00000000E+00-4.51815631E-04-4.48757371E-05
19 13 4.96691368E-04-4.06939940E-04 0.00000000E+00 0.00000000E+00-1.40650326E-01