 !Step 3: Calculate atomic orbitals integral. 
 !        This step may not be needed. It is done here
 !        in order to symmetrize the active orbitals,
 !        and to make diabatic MOs.
 !        nprint=3 is needed to print the overlap integrals.
 $system kdiag=3 mwords=100 memddi=1000 parall=.t. $end
 $contrl runtyp=energy ispher=1 nprint=3 $end
 $contrl icut=9 itol=20 inttyp=rysquad qmttol=1.0d-05 nosym=1 $end
 $scf    npunch=2 conv=1.0d-06 dirscf=.t.      $end
 $contrl scftyp=rhf  mult=1 maxit=200 icharg=0 mplevl=0 $end
 $guess  guess=moread norb=29 purify=.t. $end
 $basis  gbasis=ccd $end
 $trans  dirtrf=.t. $end
 $data
 NH3+ 3 states calculation at NH3 structure.
 c1
 N           7.0   0.0000000000  -0.0000000000  -0.1693806842
 H           1.0  -0.4653267700   0.8059696078   0.2564602281
 H           1.0  -0.4653267700  -0.8059696078   0.2564602281
 H           1.0   0.9306535400   0.0000000000   0.2564602281
 $end
--- OPTIMIZED RHF      MO-S --- GENERATED AT Wed May 11 16:53:07 2022
E=      -56.3825050291, E(NUC)=   11.8429239490
 $VEC   
 1  1-1.00134066E+00-2.25158504E-03 3.44925845E-03 0.00000000E+00 0.00000000E+00
 1  2-2.13170927E-03 0.00000000E+00 0.00000000E+00 6.57129898E-04-6.87950443E-05
 1  3-6.87950443E-05 1.37590089E-04 0.00000000E+00 0.00000000E+00 0.00000000E+00
 1  4 3.25502814E-04-4.84772356E-04 3.62525460E-04-6.27912517E-04-3.45956485E-04
 1  5 3.25502814E-04-4.84772356E-04 3.62525460E-04 6.27912517E-04-3.45956485E-04
 1  6 3.25502814E-04-4.84772356E-04-7.25050921E-04 0.00000000E+00-3.45956485E-04
 2  1 1.31286642E-02-4.05911371E-01-2.82090992E-01 0.00000000E+00 0.00000000E+00
 2  2-7.71489043E-02 0.00000000E+00 0.00000000E+00 9.73717494E-03 6.62450916E-04
 2  3 6.62450916E-04-1.32490183E-03 0.00000000E+00 0.00000000E+00 0.00000000E+00
 2  4-1.96090317E-01-1.96656153E-02-1.74855877E-02 3.02859263E-02 8.68214399E-03
 2  5-1.96090317E-01-1.96656153E-02-1.74855877E-02-3.02859263E-02 8.68214399E-03
 2  6-1.96090317E-01-1.96656153E-02 3.49711754E-02 0.00000000E+00 8.68214399E-03
 3  1 0.00000000E+00 0.00000000E+00 0.00000000E+00 4.48608762E-01 0.00000000E+00
 3  2 0.00000000E+00 2.18692520E-01 0.00000000E+00 0.00000000E+00 1.30198027E-02
 3  3-1.30198027E-02 0.00000000E+00 0.00000000E+00 2.71832968E-02 0.00000000E+00
 3  4-1.85332726E-01-7.03958951E-02 8.47929477E-03 1.95242443E-02 8.32835058E-03
 3  5-1.85332726E-01-7.03958951E-02 8.47929477E-03-1.95242443E-02 8.32835058E-03
 3  6 3.70665453E-01 1.40791790E-01-2.53376884E-02 0.00000000E+00-1.66567012E-02
 4  1 0.00000000E+00 0.00000000E+00 0.00000000E+00 0.00000000E+00 4.48608762E-01
 4  2 0.00000000E+00 0.00000000E+00 2.18692520E-01 0.00000000E+00 0.00000000E+00
 4  3 0.00000000E+00 0.00000000E+00-1.50339731E-02 0.00000000E+00 2.71832968E-02
 4  4 3.21005698E-01 1.21929267E-01 1.95242443E-02-1.40653607E-02-1.44251263E-02
 4  5-3.21005698E-01-1.21929267E-01-1.95242443E-02-1.40653607E-02 1.44251263E-02
 4  6 0.00000000E+00 0.00000000E+00 0.00000000E+00 1.97516225E-02 0.00000000E+00
 5  1 4.75727211E-04 1.52891442E-01 3.19370586E-01 0.00000000E+00 0.00000000E+00
 5  2-5.35727400E-01 0.00000000E+00 0.00000000E+00-4.49477471E-01 1.03929601E-02
 5  3 1.03929601E-02-2.07859202E-02 0.00000000E+00 0.00000000E+00 0.00000000E+00
 5  4-1.02332114E-01-3.68572888E-02-6.97991688E-03 1.20895707E-02-1.72299911E-02
 5  5-1.02332114E-01-3.68572888E-02-6.97991688E-03-1.20895707E-02-1.72299911E-02
 5  6-1.02332114E-01-3.68572888E-02 1.39598338E-02 0.00000000E+00-1.72299911E-02
 6  1-7.05626427E-02 7.52040567E-02 1.44677208E+00 0.00000000E+00 0.00000000E+00
 6  2 1.51079022E-01 0.00000000E+00 0.00000000E+00 3.57963076E-01 1.83261179E-03
 6  3 1.83261179E-03-3.66522358E-03 0.00000000E+00 0.00000000E+00 0.00000000E+00
 6  4-4.36459070E-02-7.31300212E-01-1.01605383E-02 1.75985686E-02 8.16111690E-03
 6  5-4.36459070E-02-7.31300212E-01-1.01605383E-02-1.75985686E-02 8.16111690E-03
 6  6-4.36459070E-02-7.31300212E-01 2.03210766E-02 0.00000000E+00 8.16111690E-03
 7  1 0.00000000E+00 0.00000000E+00 0.00000000E+00-2.96913907E-01 0.00000000E+00
 7  2 0.00000000E+00-8.89305973E-01 0.00000000E+00 0.00000000E+00-1.36802988E-02
 7  3 1.36802988E-02 0.00000000E+00 0.00000000E+00-3.04404392E-02 0.00000000E+00
 7  4-1.50166654E-02-8.89278516E-01-4.81337802E-03 1.70672864E-02 7.32799882E-03
 7  5-1.50166654E-02-8.89278516E-01-4.81337802E-03-1.70672864E-02 7.32799882E-03
 7  6 3.00333308E-02 1.77855703E+00-3.43747852E-02 0.00000000E+00-1.46559976E-02
 8  1 0.00000000E+00 0.00000000E+00 0.00000000E+00 0.00000000E+00-2.96913907E-01
 8  2 0.00000000E+00 0.00000000E+00-8.89305973E-01 0.00000000E+00 0.00000000E+00
 8  3 0.00000000E+00 0.00000000E+00 1.57966484E-02 0.00000000E+00-3.04404392E-02
 8  4 2.60096274E-02 1.54027557E+00 1.70672864E-02-2.45209828E-02-1.26924663E-02
 8  5-2.60096274E-02-1.54027557E+00-1.70672864E-02-2.45209828E-02 1.26924663E-02
 8  6 0.00000000E+00 0.00000000E+00 0.00000000E+00 5.04042438E-03 0.00000000E+00
 9  1 0.00000000E+00 0.00000000E+00 0.00000000E+00-1.08349219E-01 0.00000000E+00
 9  2 0.00000000E+00-6.38398749E-01 0.00000000E+00 0.00000000E+00 1.01604685E-01
 9  3-1.01604685E-01 0.00000000E+00 0.00000000E+00 8.97983633E-02 0.00000000E+00
 9  4-5.06620972E-01 2.96928297E-01-5.16458814E-02-8.41778278E-02-3.61440480E-02
 9  5-5.06620972E-01 2.96928297E-01-5.16458814E-02 8.41778278E-02-3.61440480E-02
 9  6 1.01324194E+00-5.93856594E-01 9.41543933E-02 0.00000000E+00 7.22880959E-02
10  1 0.00000000E+00 0.00000000E+00 0.00000000E+00 0.00000000E+00-1.08349219E-01
10  2 0.00000000E+00 0.00000000E+00-6.38398749E-01 0.00000000E+00 0.00000000E+00
10  3 0.00000000E+00 0.00000000E+00-1.17322985E-01 0.00000000E+00 8.97983633E-02
10  4 8.77493264E-01-5.14294897E-01-8.41778278E-02 4.55543017E-02 6.26033275E-02
10  5-8.77493264E-01 5.14294897E-01 8.41778278E-02 4.55543017E-02-6.26033275E-02
10  6 0.00000000E+00 0.00000000E+00 0.00000000E+00-1.00245973E-01 0.00000000E+00
11  1-1.33816012E-01-4.24385489E-01 7.86317888E-01 0.00000000E+00 0.00000000E+00
11  2-4.49925182E-01 0.00000000E+00 0.00000000E+00 4.09221699E-01 5.85287400E-02
11  3 5.85287400E-02-1.17057480E-01 0.00000000E+00 0.00000000E+00 0.00000000E+00
11  4 4.96577430E-01-4.63269378E-01-1.34240004E-01 2.32510507E-01-3.12974586E-03
11  5 4.96577430E-01-4.63269378E-01-1.34240004E-01-2.32510507E-01-3.12974586E-03
11  6 4.96577430E-01-4.63269378E-01 2.68480007E-01 0.00000000E+00-3.12974586E-03
12  1 8.23297811E-02 3.27698466E-01 3.14048379E-01 0.00000000E+00 0.00000000E+00
12  2-8.22605613E-01 0.00000000E+00 0.00000000E+00 1.18387953E+00-2.31356839E-02
12  3-2.31356839E-02 4.62713677E-02 0.00000000E+00 0.00000000E+00 0.00000000E+00
12  4-4.48796907E-01 3.29177178E-02-1.29322739E-03 2.23993555E-03 3.61834162E-02
12  5-4.48796907E-01 3.29177178E-02-1.29322739E-03-2.23993555E-03 3.61834162E-02
12  6-4.48796907E-01 3.29177178E-02 2.58645479E-03 0.00000000E+00 3.61834162E-02
13  1 0.00000000E+00 0.00000000E+00 0.00000000E+00 8.43183010E-01 0.00000000E+00
13  2 0.00000000E+00-1.78114733E+00 0.00000000E+00 0.00000000E+00-9.16849899E-02
13  3 9.16849899E-02 0.00000000E+00 0.00000000E+00-9.57293605E-02 0.00000000E+00
13  4-7.41786230E-02-6.07754368E-01-4.71958086E-02 1.58701800E-01 7.97610521E-02
13  5-7.41786230E-02-6.07754368E-01-4.71958086E-02-1.58701800E-01 7.97610521E-02
13  6 1.48357246E-01 1.21550874E+00-3.22075389E-01 0.00000000E+00-1.59522104E-01
14  1 0.00000000E+00 0.00000000E+00 0.00000000E+00 0.00000000E+00 8.43183010E-01
14  2 0.00000000E+00 0.00000000E+00-1.78114733E+00 0.00000000E+00 0.00000000E+00
14  3 0.00000000E+00 0.00000000E+00 1.05868707E-01 0.00000000E+00-9.57293605E-02
14  4 1.28481144E-01 1.05266144E+00 1.58701800E-01-2.30448862E-01-1.38150195E-01
14  5-1.28481144E-01-1.05266144E+00-1.58701800E-01-2.30448862E-01 1.38150195E-01
14  6 0.00000000E+00 0.00000000E+00 0.00000000E+00 4.44307182E-02 0.00000000E+00
15  1 0.00000000E+00 0.00000000E+00 0.00000000E+00-4.93262593E-02 0.00000000E+00
15  2 0.00000000E+00-3.03754995E-01 0.00000000E+00 0.00000000E+00-1.25636971E-01
15  3 1.25636971E-01 0.00000000E+00 0.00000000E+00 2.05117886E-01 0.00000000E+00
15  4-8.23773606E-02-9.20354560E-03 3.21291776E-01 2.95298202E-01-2.13786604E-01
15  5-8.23773606E-02-9.20354560E-03 3.21291776E-01-2.95298202E-01-2.13786604E-01
15  6 1.64754721E-01 1.84070912E-02-1.90179714E-01 0.00000000E+00 4.27573209E-01
16  1 0.00000000E+00 0.00000000E+00 0.00000000E+00 0.00000000E+00-4.93262593E-02
16  2 0.00000000E+00 0.00000000E+00-3.03754995E-01 0.00000000E+00 0.00000000E+00
16  3 0.00000000E+00 0.00000000E+00 1.45073079E-01 0.00000000E+00 2.05117886E-01
16  4 1.42681774E-01 1.59410086E-02 2.95298202E-01-1.96892170E-02 3.70289261E-01
16  5-1.42681774E-01-1.59410086E-02-2.95298202E-01-1.96892170E-02-3.70289261E-01
16  6 0.00000000E+00 0.00000000E+00 0.00000000E+00 4.91782273E-01 0.00000000E+00
17  1 5.79539125E-01 1.27899139E+00-2.61286890E+00 0.00000000E+00 0.00000000E+00
17  2-1.44277424E-02 0.00000000E+00 0.00000000E+00-1.35020849E-01 8.93697187E-02
17  3 8.93697187E-02-1.78739437E-01 0.00000000E+00 0.00000000E+00 0.00000000E+00
17  4 2.94063324E-01 3.93087434E-01 1.49131450E-02-2.58303249E-02-3.52614785E-01
17  5 2.94063324E-01 3.93087434E-01 1.49131450E-02 2.58303249E-02-3.52614785E-01
17  6 2.94063324E-01 3.93087434E-01-2.98262900E-02 0.00000000E+00-3.52614785E-01
18  1 0.00000000E+00 0.00000000E+00 0.00000000E+00 0.00000000E+00 0.00000000E+00
18  2 0.00000000E+00 0.00000000E+00 0.00000000E+00 0.00000000E+00 0.00000000E+00
18  3 0.00000000E+00 0.00000000E+00 0.00000000E+00 0.00000000E+00 0.00000000E+00
18  4 0.00000000E+00 0.00000000E+00-5.42310390E-01-3.13103049E-01 0.00000000E+00
18  5 0.00000000E+00 0.00000000E+00 5.42310390E-01-3.13103049E-01 0.00000000E+00
18  6 0.00000000E+00 0.00000000E+00 0.00000000E+00 6.26206099E-01 0.00000000E+00
19  1 6.77619534E-01 1.39542119E+00-2.79808846E+00 0.00000000E+00 0.00000000E+00
19  2 1.70031578E-02 0.00000000E+00 0.00000000E+00-1.13673761E+00-1.47351591E-01
19  3-1.47351591E-01 2.94703183E-01 0.00000000E+00 0.00000000E+00 0.00000000E+00
19  4 7.63262045E-01 2.46456746E-01 4.94943422E-02-8.57267154E-02 3.88144678E-01
19  5 7.63262045E-01 2.46456746E-01 4.94943422E-02 8.57267154E-02 3.88144678E-01
19  6 7.63262045E-01 2.46456746E-01-9.89886844E-02 0.00000000E+00 3.88144678E-01
20  1 0.00000000E+00 0.00000000E+00 0.00000000E+00-4.93618850E-02 0.00000000E+00
20  2 0.00000000E+00-9.15150827E-01 0.00000000E+00 0.00000000E+00-2.46648410E-02
20  3 2.46648410E-02 0.00000000E+00 0.00000000E+00 1.41802869E-01 0.00000000E+00
20  4-1.92381763E-01-8.66714090E-02 5.49061486E-01 1.37655831E-01 3.29903659E-01
20  5-1.92381763E-01-8.66714090E-02 5.49061486E-01-1.37655831E-01 3.29903659E-01
20  6 3.84763527E-01 1.73342818E-01 3.10634593E-01 0.00000000E+00-6.59807318E-01
21  1 0.00000000E+00 0.00000000E+00 0.00000000E+00 0.00000000E+00-4.93618850E-02
21  2 0.00000000E+00 0.00000000E+00-9.15150827E-01 0.00000000E+00 0.00000000E+00
21  3 0.00000000E+00 0.00000000E+00 2.84805052E-02 0.00000000E+00 1.41802869E-01
21  4 3.33214989E-01 1.50119284E-01 1.37655831E-01 3.90110224E-01-5.71409899E-01
21  5-3.33214989E-01-1.50119284E-01-1.37655831E-01 3.90110224E-01 5.71409899E-01
21  6 0.00000000E+00 0.00000000E+00 0.00000000E+00 6.28537117E-01 0.00000000E+00
22  1 0.00000000E+00 0.00000000E+00 0.00000000E+00-7.21231781E-01 0.00000000E+00
22  2 0.00000000E+00 1.04810580E-01 0.00000000E+00 0.00000000E+00 2.59388622E-01
22  3-2.59388622E-01 0.00000000E+00 0.00000000E+00 2.36808346E-01 0.00000000E+00
22  4 7.43637020E-03-1.70972182E-01-1.75752817E-01 3.48051136E-01 1.80454538E-01
22  5 7.43637020E-03-1.70972182E-01-1.75752817E-01-3.48051136E-01 1.80454538E-01
22  6-1.48727404E-02 3.41944365E-01-7.78595069E-01 0.00000000E+00-3.60909076E-01
23  1 0.00000000E+00 0.00000000E+00 0.00000000E+00 0.00000000E+00-7.21231781E-01
23  2 0.00000000E+00 0.00000000E+00 1.04810580E-01 0.00000000E+00 0.00000000E+00
23  3 0.00000000E+00 0.00000000E+00-2.99516181E-01 0.00000000E+00 2.36808346E-01
23  4-1.28801710E-02 2.96132507E-01 3.48051136E-01-5.77647651E-01-3.12556428E-01
23  5 1.28801710E-02-2.96132507E-01-3.48051136E-01-5.77647651E-01 3.12556428E-01
23  6 0.00000000E+00 0.00000000E+00 0.00000000E+00 2.51946003E-02 0.00000000E+00
24  1-7.77437563E-02-3.07474946E-01-1.56958961E+00 0.00000000E+00 0.00000000E+00
24  2-4.46619108E-01 0.00000000E+00 0.00000000E+00-8.55737155E-01 3.51297606E-01
24  3 3.51297606E-01-7.02595211E-01 0.00000000E+00 0.00000000E+00 0.00000000E+00
24  4 5.87291761E-01 2.07189713E-01 3.45003631E-01-5.97563818E-01 2.53655285E-01
24  5 5.87291761E-01 2.07189713E-01 3.45003631E-01 5.97563818E-01 2.53655285E-01
24  6 5.87291761E-01 2.07189713E-01-6.90007263E-01 0.00000000E+00 2.53655285E-01
25  1 0.00000000E+00 0.00000000E+00 0.00000000E+00 4.44587752E-02 0.00000000E+00
25  2 0.00000000E+00-4.41922998E-01 0.00000000E+00 0.00000000E+00 7.50586634E-01
25  3-7.50586634E-01 0.00000000E+00 0.00000000E+00-8.01553137E-01 0.00000000E+00
25  4-5.76337270E-02-4.49974411E-02 4.74495160E-01 3.20549892E-01-1.63508388E-01
25  5-5.76337270E-02-4.49974411E-02 4.74495160E-01-3.20549892E-01-1.63508388E-01
25  6 1.15267454E-01 8.99948822E-02-8.07135391E-02 0.00000000E+00 3.27016777E-01
26  1 0.00000000E+00 0.00000000E+00 0.00000000E+00 0.00000000E+00 4.44587752E-02
26  2 0.00000000E+00 0.00000000E+00-4.41922998E-01 0.00000000E+00 0.00000000E+00
26  3 0.00000000E+00 0.00000000E+00-8.66702791E-01 0.00000000E+00-8.01553137E-01
26  4 9.98245435E-02 7.79378542E-02 3.20549892E-01 1.04356027E-01 2.83204836E-01
26  5-9.98245435E-02-7.79378542E-02-3.20549892E-01 1.04356027E-01-2.83204836E-01
26  6 0.00000000E+00 0.00000000E+00 0.00000000E+00 6.59564727E-01 0.00000000E+00
27  1 1.84452506E-01 5.85256434E-01 2.04144002E+00 0.00000000E+00 0.00000000E+00
27  2 5.56765290E-01 0.00000000E+00 0.00000000E+00 3.45931312E-01 4.50758854E-01
27  3 4.50758854E-01-9.01517709E-01 0.00000000E+00 0.00000000E+00 0.00000000E+00
27  4-8.43526437E-01-2.40454615E-01-3.14554121E-01 5.44823719E-01 5.35450813E-01
27  5-8.43526437E-01-2.40454615E-01-3.14554121E-01-5.44823719E-01 5.35450813E-01
27  6-8.43526437E-01-2.40454615E-01 6.29108242E-01 0.00000000E+00 5.35450813E-01
28  1 0.00000000E+00 0.00000000E+00 0.00000000E+00 8.31793056E-01 0.00000000E+00
28  2 0.00000000E+00 1.25925107E+00 0.00000000E+00 0.00000000E+00 9.09596619E-01
28  3-9.09596619E-01 0.00000000E+00 0.00000000E+00 1.05586452E+00 0.00000000E+00
28  4 7.50287730E-01 2.48211914E-01 2.10573717E-01-4.80880951E-01-2.37992041E-01
28  5 7.50287730E-01 2.48211914E-01 2.10573717E-01 4.80880951E-01-2.37992041E-01
28  6-1.50057546E+00-4.96423829E-01 1.04348396E+00 0.00000000E+00 4.75984082E-01
29  1 0.00000000E+00 0.00000000E+00 0.00000000E+00 0.00000000E+00 8.31793056E-01
29  2 0.00000000E+00 0.00000000E+00 1.25925107E+00 0.00000000E+00 0.00000000E+00
29  3 0.00000000E+00 0.00000000E+00-1.05031171E+00 0.00000000E+00 1.05586452E+00
29  4-1.29953647E+00-4.29915647E-01-4.80880951E-01 7.65847211E-01 4.12214307E-01
29  5 1.29953647E+00 4.29915647E-01 4.80880951E-01 7.65847211E-01-4.12214307E-01
29  6 0.00000000E+00 0.00000000E+00 0.00000000E+00-6.70630295E-02 0.00000000E+00
 $END   
