 !Step 4: single point gmcpt calculation averaging 3 states
 !        for NH3+ at NH3 structure, and express the adiabats
 !        in symmetry-adapted diabatic molecular orbitals.
 $system kdiag=3 mwords=100 memddi=1000 parall=.t. $end
 $contrl runtyp=energy ispher=1 $end
 $contrl icut=9 itol=20 inttyp=rysquad qmttol=1.0d-05 nosym=1 $end
 $scf    npunch=2 conv=1.0d-06 dirscf=.t.      $end
 $contrl scftyp=mcscf  mult=2 maxit=200 icharg=1 mplevl=2 $end
 $guess  guess=moread norb=29 purify=.t. $end
 $basis  gbasis=ccd $end
 $mcscf  cistep=gmcci fullnr=.t. finci=mos
         acurcy=1.d-6 maxit=100 $end
 $trans  dirtrf=.t. $end
 $mrmp   mrpt=gmcpt rdvecs=.f. $end
 $gmcpt  nmofzc=0 nmodoc=1 nmoact=7 nelact=7 stsym(1)=A
         reftyp=ormas nspace=1 mstart(1)=2 mine(1)=7 maxe(1)=7
         kstate(1)=1,1,1
         wstate(1)=1,1,1 
         iwgt=0 thrwgt=-1.0 krot=.f. kszdoe=.f. knospn=.f.
         thrde=-1.0 edshft=0.02 $end
 $data
 NH3+ 3 states calculation at NH3 structure.
 c1
 N           7.0   0.0000000000  -0.0000000000  -0.1693806842
 H           1.0  -0.4653267700   0.8059696078   0.2564602281
 H           1.0  -0.4653267700  -0.8059696078   0.2564602281
 H           1.0   0.9306535400   0.0000000000   0.2564602281
 $end
--- Semi-canonical MOs --- generated at Wed May 11 18:28:51 2022
 $VEC   
 1  1 1.00139347E+00-1.72864566E-03-6.44529845E-03 4.31134251E-11 0.00000000E+00
 1  2 1.17078017E-03-8.47525382E-11 0.00000000E+00-4.16377163E-04 8.28378876E-05
 1  3 8.28379202E-05-1.65675808E-04 0.00000000E+00 0.00000000E+00 0.00000000E+00
 1  4-2.10131017E-03 4.79346286E-04-5.19917457E-04 9.00523386E-04 4.39741989E-04
 1  5-2.10131016E-03 4.79346289E-04-5.19917458E-04-9.00523388E-04 4.39741989E-04
 1  6-2.10131017E-03 4.79346295E-04 1.03983485E-03 0.00000000E+00 4.39742058E-04
 2  1 8.60892533E-03 4.42913681E-01 2.76912618E-01-4.77006046E-11 0.00000000E+00
 2  2 9.01972889E-02-6.86289089E-11 0.00000000E+00-4.38094554E-03-4.56773824E-04
 2  3-4.56773861E-04 9.13547685E-04 0.00000000E+00-1.04205687E-10 0.00000000E+00
 2  4 1.94462032E-01 3.57436136E-03 1.87596874E-02-3.24927317E-02-9.25096107E-03
 2  5 1.94462032E-01 3.57436134E-03 1.87596874E-02 3.24927317E-02-9.25096107E-03
 2  6 1.94462033E-01 3.57436150E-03-3.75193749E-02 0.00000000E+00-9.25096110E-03
 3  1 4.65632432E-11-3.93414378E-11 1.03697743E-10 4.93271673E-01 2.21737323E-02
 3  2 1.09685040E-10 2.10677405E-01 9.47044932E-03 3.21066674E-11 1.07215773E-02
 3  3-1.07215773E-02-1.37204471E-11-5.56519868E-04 2.65353892E-02 1.19282872E-03
 3  4-1.77786229E-01-2.40430974E-02 8.98738952E-03 2.23868699E-02 8.54587705E-03
 3  5-2.07808560E-01-2.81031971E-02 6.89837055E-03-2.40849586E-02 9.98899866E-03
 3  6 3.85594790E-01 5.21462942E-02-3.23029040E-02 9.60099141E-04-1.85348757E-02
 4  1 0.00000000E+00 0.00000000E+00 0.00000000E+00-2.21737323E-02 4.93271673E-01
 4  2 0.00000000E+00-9.47044932E-03 2.10677405E-01 0.00000000E+00-4.81960345E-04
 4  3 4.81960344E-04 0.00000000E+00-1.23802111E-02-1.19282871E-03 2.65353892E-02
 4  4 3.42601584E-01 4.63320654E-02 2.28788629E-02-1.99321521E-02-1.64682666E-02
 4  5-3.25268183E-01-4.39879657E-02-2.35929655E-02-1.78431332E-02 1.56350799E-02
 4  6-1.73334008E-02-2.34409967E-03 1.45209219E-03 2.13581414E-02 8.33186647E-04
 5  1-1.32187687E-02-1.84329496E-01-2.88315213E-01-1.02326499E-10 0.00000000E+00
 5  2 5.93421462E-01 1.77191386E-11 0.00000000E+00 3.81592059E-01-1.23865537E-02
 5  3-1.23865537E-02 2.47731074E-02 0.00000000E+00 0.00000000E+00 0.00000000E+00
 5  4 1.12865134E-01 2.40141030E-02 9.33609593E-03-1.61705925E-02 1.87692346E-02
 5  5 1.12865134E-01 2.40141030E-02 9.33609593E-03 1.61705925E-02 1.87692346E-02
 5  6 1.12865134E-01 2.40141030E-02-1.86721919E-02 0.00000000E+00 1.87692346E-02
 6  1 2.79491482E-01 8.67803345E-01 1.44236150E-01-6.15802679E-11 7.72406237E-11
 6  2 7.05308582E-01 5.44264137E-10-2.83716804E-10-1.06091532E-01 6.15316781E-03
 6  3 6.15316800E-03-1.23063358E-02 0.00000000E+00 2.84972016E-11-1.07948458E-11
 6  4-5.23342621E-01-5.44445705E-02-3.91509865E-02 6.78114983E-02-1.05663720E-02
 6  5-5.23342621E-01-5.44445707E-02-3.91509865E-02-6.78114983E-02-1.05663720E-02
 6  6-5.23342622E-01-5.44445702E-02 7.83019738E-02 0.00000000E+00-1.05663720E-02
 7  1 3.92104839E-10 7.61513454E-10-2.31483614E-09-9.30417491E-01 1.02310882E-06
 7  2-1.24180115E-10-4.68659396E-02 5.15742118E-08-5.15759951E-10 1.53786350E-03
 7  3-1.53786349E-03-1.13337616E-11 1.95499313E-09 3.99855525E-02-4.39662007E-08
 7  4-3.64043544E-01-6.62208459E-02 2.67925684E-03 3.75256776E-02 1.88909187E-03
 7  5-3.64042158E-01-6.62205936E-02 2.67933937E-03-3.75255881E-02 1.88908467E-03
 7  6 7.28085703E-01 1.32441441E-01-6.23170054E-02-2.67666951E-08-3.77817669E-03
 8  1-1.64644575E-11-2.59862314E-11 7.63538823E-11 1.02312171E-06 9.30417491E-01
 8  2 0.00000000E+00 5.15321979E-08 4.68659395E-02 1.52822330E-11-1.69293500E-09
 8  3 1.68821071E-09 0.00000000E+00 1.77577176E-03-4.39690727E-08-3.99855525E-02
 8  4-6.30540314E-01-1.14697579E-01-3.75256358E-02 4.06515296E-02 3.27199486E-03
 8  5 6.30541115E-01 1.14697725E-01 3.75256299E-02 4.06516121E-02-3.27199900E-03
 8  6-8.00637886E-07-1.45658344E-07 6.85256688E-08-2.43447325E-02 4.16014044E-09
 9  1-1.71030246E-01-2.68783670E-01 1.67209369E+00-4.93920901E-11-4.44537458E-11
 9  2-2.53178497E-01 2.62631170E-10 2.22273204E-10 6.00106274E-01 2.27741212E-02
 9  3 2.27741208E-02-4.55482420E-02-2.10843396E-11 2.20141565E-10 2.04728542E-11
 9  4 2.29664536E-01-8.61921660E-01-5.81709786E-02 1.00755090E-01 2.39434824E-02
 9  5 2.29664536E-01-8.61921660E-01-5.81709785E-02-1.00755090E-01 2.39434824E-02
 9  6 2.29664539E-01-8.61921666E-01 1.16341957E-01-1.95591059E-11 2.39434826E-02
10  1-5.01144317E-10-1.02133326E-09 4.12582933E-09 5.36763558E-02-6.05784223E-03
10  2-7.54059636E-10-5.82653202E-01 6.57574664E-02 1.46886532E-09-7.77483638E-02
10  3 7.77483639E-02-1.35553271E-10-1.01320089E-02-9.58377223E-02 1.08161180E-02
10  4 3.37081297E-01-1.15327734E+00 6.75027430E-03 6.87127706E-02 4.18997420E-02
10  5 2.26846425E-01-7.76123870E-01 2.07820296E-02-5.56175545E-02 2.81973718E-02
10  6-5.63927720E-01 1.92940120E+00-9.39070669E-02-5.60424847E-03-7.00971136E-02
11  1 4.91090469E-11 8.48294357E-11-5.86314331E-10-6.05784222E-03-5.36763559E-02
11  2 1.20831397E-10 6.57574663E-02 5.82653202E-01-2.31691482E-10 8.77457705E-03
11  3-8.77457707E-03 2.18484607E-11-8.97760776E-02 1.08161180E-02 9.58377223E-02
11  4 4.56553665E-01-1.56203563E+00-6.37187919E-02 5.10001165E-02 5.67503476E-02
11  5-5.20197799E-01 1.77978529E+00 6.06115327E-02 6.50318718E-02-6.46614148E-02
11  6 6.36441333E-02-2.17749657E-01 1.05982268E-02-4.96572253E-02 7.91106713E-03
12  1-9.36726622E-11-9.27910715E-11 1.67161072E-10 2.54682888E-01-4.82901857E-01
12  2 4.86218581E-10-8.83378572E-01 1.67496590E+00-4.01609560E-10 6.08391429E-03
12  3-6.08391434E-03 5.71536858E-11 1.33202252E-02-1.59240212E-02 3.01933884E-02
12  4-6.41221736E-01-1.02454363E+00-7.01443789E-02 1.27823011E-01 8.27861309E-02
12  5 3.41873947E-01 5.46245952E-01-2.17578888E-02 1.02303931E-01-4.41382751E-02
12  6 2.99347787E-01 4.78297683E-01-6.80513054E-02 7.31595413E-02-3.86478557E-02
13  1 6.43016482E-11 0.00000000E+00 4.61971732E-10-4.82901857E-01-2.54682888E-01
13  2-5.46763101E-10 1.67496590E+00 8.83378572E-01 6.65773328E-10-1.15356533E-02
13  3 1.15356534E-02-9.45167889E-11 7.02509914E-03 3.01933884E-02 1.59240211E-02
13  4 2.45524901E-02 3.92299506E-02 7.43679777E-02 3.64913366E-02-3.16989513E-03
13  5 5.43038068E-01 8.67665839E-01 9.98870576E-02 8.48778264E-02-7.01099449E-02
13  6-5.67590557E-01-9.06895791E-01 1.29031447E-01 3.85844101E-02 7.32798400E-02
14  1 9.31933455E-02 3.63134981E-01 2.03866899E-01 2.51966447E-10-3.22231648E-11
14  2-6.89374306E-01-4.47240008E-10 8.92615986E-11 1.09464794E+00-4.01458075E-02
14  3-4.01458075E-02 8.02916150E-02 0.00000000E+00-4.14875742E-11 0.00000000E+00
14  4-5.31088846E-01 1.08442222E-01 2.51440558E-02-4.35507822E-02 5.56197467E-02
14  5-5.31088846E-01 1.08442222E-01 2.51440558E-02 4.35507822E-02 5.56197467E-02
14  6-5.31088846E-01 1.08442223E-01-5.02881118E-02 0.00000000E+00 5.56197466E-02
15  1-2.84119723E-10-6.02437911E-10 1.24746444E-09-2.92873246E-03-7.63259405E-02
15  2 1.09698575E-10 1.99232581E-02 5.19221687E-01 0.00000000E+00 5.88051700E-03
15  3-5.88051709E-03 9.17960075E-11-1.76960911E-01-7.78970000E-03-2.03008020E-01
15  4-1.20686028E-01-1.56129003E-01-3.26370099E-01 4.66099254E-02-3.25429955E-01
15  5 1.26154466E-01 1.63203407E-01 3.02988438E-01 7.07592876E-02 3.40175603E-01
15  6-5.46843850E-03-7.07440497E-03 9.22313030E-03-4.86355874E-01-1.47456474E-02
16  1-5.16151393E-10-1.13841986E-09 2.29092641E-09-7.63259405E-02 2.92873246E-03
16  2 3.08329797E-10 5.19221687E-01-1.99232581E-02-2.25463298E-10 1.53252644E-01
16  3-1.53252644E-01 2.28496793E-10 6.79023619E-03-2.03008020E-01 7.78970000E-03
16  4 7.59925187E-02 9.83099406E-02-2.92601033E-01-3.16931078E-01 2.04913880E-01
16  5 6.65209058E-02 8.60567120E-02-3.16750395E-01 3.12427458E-01 1.79373669E-01
16  6-1.42513426E-01-1.84366653E-01 2.40364767E-01 1.86621512E-02-3.84287548E-01
17  1-5.44059774E-01-1.15679547E+00 2.34574403E+00-3.26534617E-10 9.42366376E-11
17  2 1.78826881E-01 3.70973916E-10-4.05535031E-10-7.41944677E-02-1.07240275E-01
17  3-1.07240274E-01 2.14480549E-01 5.41642650E-11 2.52594369E-10 1.07998258E-10
17  4-3.41756515E-01-3.26647554E-01 3.56478968E-02-6.17439673E-02 3.18425429E-01
17  5-3.41756515E-01-3.26647554E-01 3.56478965E-02 6.17439672E-02 3.18425429E-01
17  6-3.41756515E-01-3.26647554E-01-7.12957928E-02 1.71768993E-10 3.18425430E-01
18  1 2.79790170E-11 5.57303654E-11-1.36214498E-10 0.00000000E+00 1.59034387E-10
18  2 0.00000000E+00 0.00000000E+00-3.02924855E-10-6.52686846E-11 0.00000000E+00
18  3 0.00000000E+00 1.98223903E-11 3.17420967E-11 0.00000000E+00-3.25251958E-11
18  4-1.07180170E-10 2.58156171E-10-5.42310390E-01-3.13103050E-01-1.22375300E-10
18  5 1.95068065E-10-2.39001529E-10 5.42310390E-01-3.13103050E-01 1.67658964E-10
18  6 4.39421470E-11 0.00000000E+00-1.28481075E-11 6.26206099E-01 2.26533802E-11
19  1-6.64738096E-01-1.35705387E+00 2.70746905E+00-5.19955732E-11 6.05520962E-11
19  2-1.79768851E-02 1.01202541E-09 6.80244340E-10 1.10548335E+00 1.59029368E-01
19  3 1.59029368E-01-3.18058736E-01-5.62551119E-11-1.13272568E-10-5.72994481E-11
19  4-7.58853241E-01-2.34726698E-01-3.25197365E-02 5.63258346E-02-3.83989551E-01
19  5-7.58853241E-01-2.34726698E-01-3.25197362E-02-5.63258351E-02-3.83989552E-01
19  6-7.58853241E-01-2.34726699E-01 6.50394720E-02-4.38209202E-10-3.83989550E-01
20  1 5.91534081E-10 1.22734545E-09-2.32740219E-09 2.04976926E-03 2.46308348E-02
20  2 3.99626995E-11 8.08486232E-02 9.71508903E-01-9.02289345E-10 2.35437992E-03
20  3-2.35438018E-03 2.57558481E-10-3.26678155E-02-1.21564617E-02-1.46076832E-01
20  4-2.92926177E-01-2.02060127E-01-2.05461638E-01-3.48292043E-01 5.76857333E-01
20  5 3.22495260E-01 2.22456845E-01 1.18596463E-01-3.21324044E-01-6.35087504E-01
20  6-2.95690810E-02-2.03967170E-02-2.00776148E-02-6.15450592E-01 5.82301718E-02
21  1 5.82997409E-10 1.32734686E-09-2.73141487E-09 2.46308349E-02-2.04976926E-03
21  2 8.14742323E-11 9.71508903E-01-8.08486232E-02-9.95093972E-10 2.82911580E-02
21  3-2.82911582E-02 2.65096898E-10 2.71860391E-03-1.46076832E-01 1.21564617E-02
21  4 2.03264443E-01 1.40211569E-01-5.08419076E-01-1.34166445E-01-4.00287146E-01
21  5 1.52049291E-01 1.04883419E-01-5.35387075E-01 1.89891656E-01-2.99429531E-01
21  6-3.55313732E-01-2.45094988E-01-2.41260528E-01 5.12175780E-02 6.99716678E-01
22  1-2.65110184E-11-6.04697335E-11 7.30771721E-11-2.77725851E-02 5.68684465E-01
22  2 0.00000000E+00 2.74434619E-03-5.61945183E-02 0.00000000E+00 1.11566607E-02
22  3-1.11566606E-02-2.15305352E-11 2.63790196E-01 9.10831476E-03-1.86506121E-01
22  4 1.12197927E-01-3.84169556E-01-3.65132556E-01 6.50066469E-01 3.14558972E-01
22  5-1.06044411E-01 3.63099707E-01 3.43276421E-01 6.15470221E-01-2.97306927E-01
22  6-6.15351582E-03 2.10698495E-02-4.08892969E-02 1.92681742E-02-1.72520443E-02
23  1 1.61810186E-10 3.74049749E-10 6.60509654E-11 5.68684465E-01 2.77725851E-02
23  2 5.34108395E-11-5.61945184E-02-2.74434618E-03 1.35857664E-10-2.28449011E-01
23  3 2.28449011E-01 1.29543867E-10 1.28826021E-02-1.86506121E-01-9.10831476E-03
23  4-5.76720355E-02 1.97471030E-01 2.06470107E-01-3.23302268E-01-1.61689762E-01
23  5-6.83302375E-02 2.33965080E-01 2.41066355E-01 3.85106709E-01-1.91571179E-01
23  6 1.26002273E-01-4.31436110E-01 8.37268402E-01 9.40991082E-04 3.53260942E-01
24  1 8.31522660E-03 1.46170787E-01 2.28911838E+00-2.58493196E-10 1.89216677E-11
24  2 3.99670387E-01 7.63782133E-11-4.31544796E-11 1.03945966E+00-2.36316319E-01
24  3-2.36316319E-01 4.72632639E-01-2.09119217E-11 1.43666082E-10 1.13194426E-11
24  4-6.91902365E-01-3.15130411E-01-4.18381966E-01 7.24658821E-01-1.21251279E-01
24  5-6.91902365E-01-3.15130411E-01-4.18381966E-01-7.24658821E-01-1.21251279E-01
24  6-6.91902365E-01-3.15130411E-01 8.36763931E-01 4.03123761E-11-1.21251279E-01
25  1-9.64719209E-11-2.04011763E-10-6.30234263E-10-3.76843506E-02 7.18458379E-03
25  2-1.38308870E-10 4.30953188E-01-8.21619385E-02-1.68651457E-11-7.47656536E-01
25  3 7.47656536E-01 5.11975509E-10-1.64593273E-01 7.66254449E-01-1.46087679E-01
25  4 7.36051180E-02 5.57488550E-02-4.19869150E-01-2.94821538E-01 2.17857022E-01
25  5 3.70611015E-02 2.80702487E-02-5.40615543E-01 3.38513608E-01 1.09693746E-01
25  6-1.10666219E-01-8.38191035E-02 6.82419788E-02 1.26415480E-01-3.27550769E-01
26  1-1.47187885E-11-3.78857394E-11-2.28612276E-10-7.18458381E-03-3.76843505E-02
26  2-4.03768354E-11 8.21619385E-02 4.30953188E-01 0.00000000E+00-1.42541956E-01
26  3 1.42541956E-01 1.66587023E-10 8.63319405E-01 1.46087679E-01 7.66254449E-01
26  4-8.52904080E-02-6.45993476E-02-4.08226571E-01-1.74959326E-01-2.52443239E-01
26  5 1.06389106E-01 8.05795984E-02 2.25108575E-01-5.42129326E-02 3.14891335E-01
26  6-2.10986977E-02-1.59802508E-02 1.30104462E-02-6.63070455E-01-6.24480963E-02
27  1 1.02877926E-01 3.35992578E-01 1.78551135E+00-4.53383981E-11 1.14290715E-11
27  2 3.40191545E-01 2.51858444E-10 2.30082967E-11 1.95729309E-01 5.15177261E-01
27  3 5.15177261E-01-1.03035452E+00 2.97953228E-11 4.31354752E-10 7.17442488E-11
27  4-6.27451246E-01-2.21194928E-01-2.36143509E-01 4.09012555E-01 6.00032424E-01
27  5-6.27451246E-01-2.21194928E-01-2.36143509E-01-4.09012555E-01 6.00032424E-01
27  6-6.27451246E-01-2.21194928E-01 4.72287017E-01-2.34033362E-11 6.00032424E-01
28  1 3.95689374E-11 7.88424568E-11-2.41455180E-10 8.36421955E-03 6.98845603E-01
28  2-1.13871586E-11 1.58235128E-02 1.32208298E+00-6.20382520E-11 1.09107032E-02
28  3-1.09107033E-02 2.13407507E-11-1.05263529E+00 1.29760869E-02 1.08417542E+00
28  4-1.22781193E+00-4.59243544E-01-4.79476018E-01 7.59697941E-01 4.06761044E-01
28  5 1.24489858E+00 4.65634532E-01 4.84477176E-01 7.71235134E-01-4.12421669E-01
28  6-1.70866464E-02-6.39098859E-03 1.24920809E-02-6.93414166E-02 5.66062439E-03
29  1-8.20690406E-11-1.60874514E-10 4.11981918E-10-6.98845603E-01 8.36421956E-03
29  2 3.63501429E-11-1.32208298E+00 1.58235128E-02 1.02461569E-10-9.11608901E-01
29  3 9.11608901E-01 1.02935390E-11-1.25985949E-02-1.08417542E+00 1.29760868E-02
29  4-7.28607509E-01-2.72524062E-01-2.14696498E-01 4.91138178E-01 2.41379924E-01
29  5-6.99012569E-01-2.61454545E-01-2.03159305E-01-4.72815017E-01 2.31575435E-01
29  6 1.42762008E+00 5.33978606E-01-1.04373586E+00-8.29921260E-04-4.72955360E-01
 $END   
 $DMO
 1  1 8.60892533E-03 4.42913681E-01 2.76912618E-01 0.00000000E+00 0.00000000E+00
 1  2 9.01972889E-02 0.00000000E+00 0.00000000E+00-4.38094554E-03-4.56773824E-04
 1  3-4.56773861E-04 9.13547685E-04 0.00000000E+00 0.00000000E+00 0.00000000E+00
 1  4 1.94462032E-01 3.57436136E-03 1.87596874E-02-3.24927317E-02-9.25096107E-03
 1  5 1.94462032E-01 3.57436134E-03 1.87596874E-02 3.24927317E-02-9.25096107E-03
 1  6 1.94462033E-01 3.57436150E-03-3.75193749E-02 0.00000000E+00-9.25096110E-03
 2  1 0.00000000E+00 0.00000000E+00 0.00000000E+00 4.93769802E-01 0.00000000E+00
 2  2 0.00000000E+00 2.10890157E-01 0.00000000E+00 0.00000000E+00 1.07324045E-02
 2  3-1.07324045E-02 0.00000000E+00 0.00000000E+00 2.65621859E-02 0.00000000E+00
 2  4-1.92992091E-01-2.60994772E-02 7.95090114E-03 2.32593790E-02 9.27679656E-03
 2  5-1.92992091E-01-2.60994771E-02 7.95090114E-03-2.32593790E-02 9.27679656E-03
 2  6 3.85984182E-01 5.21989540E-02-3.23355250E-02 0.00000000E+00-1.85535931E-02
 3  1 0.00000000E+00 0.00000000E+00 0.00000000E+00 0.00000000E+00 4.93769802E-01
 3  2 0.00000000E+00 0.00000000E+00 2.10890157E-01 0.00000000E+00 0.00000000E+00
 3  3 0.00000000E+00 0.00000000E+00-1.23927132E-02 0.00000000E+00 2.65621859E-02
 3  4 3.34272107E-01 4.52056203E-02 2.32593789E-02-1.89067163E-02-1.60678830E-02
 3  5-3.34272107E-01-4.52056203E-02-2.32593789E-02-1.89067163E-02 1.60678830E-02
 3  6 0.00000000E+00 0.00000000E+00 0.00000000E+00 2.13797099E-02 0.00000000E+00
 4  1-1.32187687E-02-1.84329496E-01-2.88315213E-01 0.00000000E+00 0.00000000E+00
 4  2 5.93421462E-01 0.00000000E+00 0.00000000E+00 3.81592059E-01-1.23865537E-02
 4  3-1.23865537E-02 2.47731074E-02 0.00000000E+00 0.00000000E+00 0.00000000E+00
 4  4 1.12865134E-01 2.40141030E-02 9.33609593E-03-1.61705925E-02 1.87692346E-02
 4  5 1.12865134E-01 2.40141030E-02 9.33609593E-03 1.61705925E-02 1.87692346E-02
 4  6 1.12865134E-01 2.40141030E-02-1.86721919E-02 0.00000000E+00 1.87692346E-02
 5  1 2.79491482E-01 8.67803345E-01 1.44236150E-01 0.00000000E+00 0.00000000E+00
 5  2 7.05308582E-01 0.00000000E+00 0.00000000E+00-1.06091532E-01 6.15316781E-03
 5  3 6.15316800E-03-1.23063358E-02 0.00000000E+00 0.00000000E+00 0.00000000E+00
 5  4-5.23342621E-01-5.44445705E-02-3.91509865E-02 6.78114983E-02-1.05663720E-02
 5  5-5.23342621E-01-5.44445707E-02-3.91509865E-02-6.78114983E-02-1.05663720E-02
 5  6-5.23342622E-01-5.44445702E-02 7.83019738E-02 0.00000000E+00-1.05663720E-02
 6  1 0.00000000E+00 0.00000000E+00 0.00000000E+00 9.30417491E-01 0.00000000E+00
 6  2 0.00000000E+00 4.68659396E-02 0.00000000E+00 0.00000000E+00-1.53786350E-03
 6  3 1.53786349E-03 0.00000000E+00 0.00000000E+00-3.99855525E-02 0.00000000E+00
 6  4 3.64042851E-01 6.62207198E-02-2.67929810E-03-3.75256329E-02-1.88908827E-03
 6  5 3.64042851E-01 6.62207197E-02-2.67929811E-03 3.75256328E-02-1.88908827E-03
 6  6-7.28085703E-01-1.32441441E-01 6.23170054E-02 0.00000000E+00 3.77817669E-03
 7  1 0.00000000E+00 0.00000000E+00 0.00000000E+00 0.00000000E+00 9.30417491E-01
 7  2 0.00000000E+00 0.00000000E+00 4.68659395E-02 0.00000000E+00 0.00000000E+00
 7  3 0.00000000E+00 0.00000000E+00 1.77577176E-03 0.00000000E+00-3.99855525E-02
 7  4-6.30540714E-01-1.14697652E-01-3.75256329E-02 4.06515709E-02 3.27199694E-03
 7  5 6.30540715E-01 1.14697652E-01 3.75256328E-02 4.06515708E-02-3.27199692E-03
 7  6 0.00000000E+00 0.00000000E+00 0.00000000E+00-2.43447325E-02 0.00000000E+00
 $END 
