 !#############################################################################
 !                   D_3h RHF GEOMETRY OPTIMIZATION AND HESSIAN TEMPLATE
 ! ---------------------------------------------------------------------------
 ! Replace the symmetry-correct coordinates, should only be two atoms.  
 ! The hydrogen or fluorine should have only one non-zero x,y,z coordinate.
 ! 
 ! Basis set?   gbasis=ccd for 2nd row, 
 !                         cct 3rd/4th,
 !                   SPKrTZP for heavy,
 !                   SPKrTZC beyond 4th
 ! 
 !#############################################################################
 $system kdiag=3 mwords=500 memddi=3000 parall=.t. $end
 $contrl runtyp=energy ispher=1 $end
 $contrl icut=9 itol=20 inttyp=rysquad qmttol=1.0d-05 nosym=1 $end
 $contrl scftyp=mcscf  mult=2 maxit=200 icharg=1 mplevl=2 $end
 $scf    npunch=2 conv=1.0d-06 dirscf=.t. $end
 $force  method=seminum $end
 $trans  dirtrf=.t. $end
 $statpt hssend=.t. $end
 $basis  gbasis=cct $end
 !#############################################################################
 !
 !                       TURN ON THIS SECTION IF HEAVY ATOM
 !
 !#############################################################################
 !
 -contrl relwfn=LUT-IOTC $end
 -scf  diis=.t. soscf=.f. ethrsh=10.0 $end
 -guess iorder(25)=27,25,26 $end
 -gmcpt nsolut=100 $end
 !
 !#############################################################################
 !
 ! TURN ON THIS SECTION IF GMCPT, CHANGE runtyp=energy, scftyp=mcscf, change nosym=1
 !
 !#############################################################################
 $guess   guess=moread norb=81 purify=.t. norder=1 $end
 $mcscf   cistep=gmcci fullnr=.t. finci=mos
          acurcy=1.d-5 maxit=200 $end
 $mrmp    mrpt=gmcpt rdvecs=.f. $end
 $gmcpt   nmofzc=1 nmodoc=4 nmoact=7 nelact=7 stsym(1)=A
          reftyp=ormas nspace=1 mstart(1)=6 mine(1)=7 maxe(1)=7
          kstate(1)=1,1,1
          wstate(1)=1,1,1
          iwgt=0 thrwgt=-1.0 krot=.f. kszdoe=.f. knospn=.t.
          thrde=-1.0 edshft=0.02 $end
 $transt $end
 !#############################################################################
 !
 !             TURN OFF THIS SECTION IF temp.inp, add C1
 !
 !    IF SOC, $transt $end, turn knospn=.t., restart from gmcpt states calc
 !
 !#############################################################################
 -data
 PH3 geomopt
 C1
 P          15.0  -0.0000241839   0.0000000030  -0.2461464716
 H           1.0  -0.5931024567   1.0273565799   0.5139412054
 H           1.0  -0.5931025435  -1.0273565264   0.5139412059
 H           1.0   1.1862291841  -0.0000000535   0.5139565203
 -end
--- OPTIMIZED MCSCF MO-S --- GENERATED AT Wed May  1 00:33:08 2024
 PH3 bullet                                                                     
E(MCSCF)=     -342.1449288724, E(NUC)=       17.6747132391
 $VEC   
 1  1 1.00013654E+00 1.75515415E-04 2.79424000E-04-9.34879881E-04-1.68202304E-04
 1  2 2.75362375E-06-4.25279535E-06 5.82529893E-05-5.36890520E-06 9.31160918E-06
 1  3 1.01913041E-04-2.84303306E-06 4.77563756E-06-3.70341930E-05-1.95302935E-06
 1  4 3.68450962E-06-3.72743996E-05 1.50985792E-06 8.04070307E-07-2.31392822E-06
 1  5 4.64352186E-07-4.33946524E-07 9.18564119E-07 6.21160784E-07 1.17310013E-06
 1  6-1.79426091E-06-9.66063086E-07-1.58517846E-07 2.30290712E-07 8.46717021E-06
 1  7 7.75315379E-08-9.73662561E-06 3.17568835E-08 6.79447385E-06-1.13951052E-05
 1  8 6.26858019E-06 3.52043535E-08-1.35776357E-07 1.61423951E-07-3.96480197E-07
 1  9 3.85585320E-07 1.08948773E-08-7.16314277E-07-2.30382289E-07 3.37550559E-07
 1 10 1.78697840E-05-1.42668925E-05 4.43052239E-05 1.11882425E-06-1.93317530E-06
 1 11-1.71255580E-06-9.04394161E-06 1.57107534E-05 1.07803471E-05-2.15309856E-06
 1 12 2.13586360E-06 1.72349644E-08-4.37010112E-06-3.60501075E-06 6.18136919E-06
 1 13 9.98223932E-06-3.21927321E-05 3.96765557E-05 9.77640331E-07 1.82921844E-06
 1 14-1.56924530E-06-1.03829023E-05-1.73570634E-05 1.23534626E-05-2.20004626E-06
 1 15 2.20237091E-06-2.32465191E-09 4.35198152E-06-3.58538761E-06-6.14343959E-06
 1 16 9.90670046E-06-3.25640251E-05 3.93352231E-05-1.87675239E-06 6.82498760E-08
 1 17-1.45154926E-06 2.04463784E-05 3.27169794E-07 1.25209726E-05 4.24204662E-06
 1 18-4.23026520E-06-1.17814258E-08-6.30457372E-08 6.91856620E-06 2.93029384E-09
 2  1-4.18301805E-04 9.54272339E-01-1.62499264E-03 6.25615167E-02 3.63375199E-03
 2  2 2.99312468E-04-4.77047457E-04-4.22764548E-04-5.26658129E-05 9.63430110E-05
 2  3-5.33434339E-04 4.69222073E-05-6.93376536E-05 3.17931683E-04-1.86597228E-05
 2  4 2.90101719E-05 5.35064379E-04 4.82575977E-05-2.83366652E-05-1.99209325E-05
 2  5 7.38599373E-05 2.65511933E-05-4.24688914E-05-2.64849328E-05-1.48485827E-06
 2  6 2.79697910E-05-2.38847377E-05-2.04537865E-06 3.34380007E-06 4.24164312E-05
 2  7 4.75419627E-06-4.30050268E-05 1.90078319E-06 3.98166100E-05-6.14051846E-05
 2  8 1.78806879E-05 4.49757048E-06-8.27920681E-06 2.18028417E-05 1.00675438E-04
 2  9-7.64088441E-05-2.42665937E-05 1.73467199E-04 4.19310582E-05-6.71714579E-05
 2 10 3.32960123E-04 1.05911003E-03-5.09606089E-04 2.56282257E-05-4.41023104E-05
 2 11-2.41455309E-05 1.85417679E-04-3.18120808E-04-2.48658611E-04-1.91527798E-05
 2 12 2.86720961E-05-9.51931623E-06-4.92944052E-05-3.27627886E-05 5.62928813E-05
 2 13 2.07429336E-04 6.60636477E-04-5.99378729E-04 1.47554325E-05 2.30418286E-05
 2 14-6.48892835E-06 1.35875573E-04 2.18111899E-04-1.73635378E-04-4.02352677E-06
 2 15 1.46421178E-05-1.06185910E-05 3.40990685E-05-2.19399540E-05-2.66011299E-05
 2 16 2.05189514E-04 6.50825021E-04-5.94925927E-04-2.56558478E-05-1.18442732E-06
 2 17-5.28039544E-06-2.53574245E-04-7.29922663E-06-1.70811902E-04 3.33706186E-05
 2 18-2.27221716E-05-1.06484470E-05 7.21547596E-06 3.03395744E-05 5.56061296E-06
 3  1 1.42073810E-06-2.40287768E-06-4.97059397E-05-1.27506488E-05 2.12176612E-05
 3  2 8.23715174E-01 4.90535689E-01-1.23360637E-02-1.84567362E-03-1.07450463E-03
 3  3 1.00145476E-05 6.76484557E-02 4.02615096E-02-1.00072514E-03 8.13321102E-04
 3  4 4.93030400E-04-8.05317596E-06 2.18340715E-04-2.19683377E-04 1.34266154E-06
 3  5-1.45251688E-04 1.85857862E-04 1.10633706E-04-5.13791141E-04 5.02751813E-04
 3  6 1.10393284E-05 3.48412217E-04-1.38400812E-03-8.09161923E-04 8.38211812E-05
 3  7-8.69728738E-06 2.21697578E-06 1.01012079E-04-9.86288453E-05 4.37781227E-05
 3  8 9.56544601E-05-1.56236038E-04-8.93434438E-05 6.64049017E-05-1.43065211E-04
 3  9 1.46999100E-04-3.93388947E-06 1.07761217E-04-1.33059783E-04-8.01396694E-05
 3 10-4.11762346E-06 3.19172269E-08-8.69844490E-06-3.29780706E-06-6.33712537E-07
 3 11 2.70817616E-07 4.89810013E-04 2.88128167E-04-9.61156326E-06 6.71644867E-05
 3 12-6.81646950E-05 1.00020828E-06-4.36512934E-05 2.67327106E-06 2.03427631E-06
 3 13-5.19852120E-04-2.86293758E-03 8.23784832E-06 1.44129603E-05 3.75904480E-05
 3 14-6.44928491E-06-2.06613458E-04-8.69236411E-04 6.65012953E-04 1.96354569E-06
 3 15-5.83193847E-06 3.86839278E-06 6.60960012E-05-2.19612377E-05-6.83331452E-05
 3 16 4.80027491E-04 2.75078883E-03-1.82666532E-05 4.04669464E-05-5.72631613E-06
 3 17 7.36252474E-06-8.24929819E-04 2.64845514E-04-6.54789971E-04-4.93362227E-05
 3 18 5.12727786E-05-1.93655589E-06-3.76416200E-05-7.12530853E-05 1.52016626E-05
 4  1-9.19651393E-05-8.67540982E-04 1.84129404E-03 7.93065081E-04-4.58810535E-04
 4  2 3.16286986E-01-5.12384730E-01 7.47150129E-01-3.08139796E-04 4.46026268E-04
 4  3-2.89045293E-04 2.57494397E-02-4.16774897E-02 6.06360305E-02 3.94073387E-04
 4  4-6.48832862E-04 9.09242251E-04 1.03260604E-04 1.85719512E-05-1.21832556E-04
 4  5 7.18007153E-05 1.20304285E-04-2.00169557E-04 8.77657998E-05 3.83130407E-04
 4  6-4.70896206E-04-2.71062670E-04-4.14672570E-04 6.58956874E-04 1.51336337E-04
 4  7-1.30182802E-05-1.23121812E-04-3.75728993E-06 6.55116931E-05-1.87201079E-04
 4  8 9.96735518E-05-1.58379237E-05 2.12231457E-05-2.99829825E-05-1.54785634E-04
 4  9 2.95289817E-05 1.25256652E-04-1.83333488E-04-4.09309909E-05 7.40904130E-05
 4 10 2.28813992E-05-8.85407668E-04 7.38960374E-05 1.34811922E-05-2.38922629E-05
 4 11 4.15600465E-06-1.49842118E-05 4.58875012E-05 5.58898723E-04 5.38995120E-06
 4 12 3.09990017E-05-3.63889529E-05-2.99432936E-05 1.35129686E-05-2.25398466E-05
 4 13 8.05319742E-04 2.20767942E-03 1.40095758E-04-6.42492324E-07-9.55568761E-06
 4 14-1.89823735E-06 6.31075059E-04 5.19581841E-04-1.19508032E-04 4.90192483E-05
 4 15-2.34502370E-05-2.55690113E-05 2.19305143E-06 3.95850882E-05 6.05998937E-05
 4 16 8.14673803E-04 2.29067810E-03 1.38930337E-04 1.14453441E-05-4.74196995E-06
 4 17-8.75322651E-07-7.93993402E-04-2.71583459E-04-1.40853590E-04-8.50433150E-06
 4 18 3.40768679E-05-2.55725364E-05 3.63336354E-05-8.00062139E-05-2.84621913E-06
 5  1-2.53432704E-05 2.66496207E-04 3.82012385E-03 6.99366829E-04 3.77152260E-04
 5  2-3.75524256E-01 6.45753660E-01 6.02281427E-01-1.96756748E-04 3.64380695E-04
 5  3 3.13532355E-04-3.06109528E-02 5.26268073E-02 4.88022636E-02-6.08594491E-04
 5  4 1.06128134E-03 8.36098737E-04-6.87331900E-05 1.36724694E-04-6.79915042E-05
 5  5-2.01092103E-04-1.39833523E-04 2.37463868E-04 3.15047602E-04 2.25503828E-05
 5  6-3.37597984E-04 2.91019874E-04 4.57168956E-04-7.68223975E-04 3.09201604E-05
 5  7 5.03662304E-05-9.17845993E-05 2.21909302E-05 1.21724475E-04-9.52781194E-05
 5  8 1.41748748E-06 5.37943712E-05-8.97643192E-05 1.19947635E-04 4.59367480E-05
 5  9-2.13083920E-04 1.67147172E-04 2.65277514E-04 1.11112790E-04-1.85795389E-04
 5 10 1.88123011E-03 4.96391018E-03 4.71231524E-04 2.87585286E-05-4.91970123E-05
 5 11-5.50248997E-05 6.16123046E-04-1.06304804E-03-6.05345112E-04 2.00820452E-05
 5 12-1.00413338E-05-1.00407114E-05 3.07871867E-05 3.60465212E-05-6.23628633E-05
 5 13 2.27182510E-04-3.18145261E-04-2.50091446E-05 9.78420228E-06 3.21169127E-05
 5 14-5.19393804E-06-2.73709726E-04 1.97160790E-04 3.44941156E-04-2.77937125E-05
 5 15 3.88620990E-05-1.10683865E-05-1.15419568E-05 8.10971925E-07 2.80189601E-05
 5 16 2.20224554E-04-3.46796940E-04-2.67582703E-05-3.22677703E-05 7.75936343E-06
 5 17-5.10100417E-06-2.25700388E-05 3.29361306E-04 3.48161448E-04 1.39114470E-05
 5 18-2.71053459E-06-1.12009125E-05-3.93088852E-05-2.46263413E-05 1.32186466E-05
 6  1 6.88342465E-04-1.61613346E-03 5.36650531E-01 6.27500555E-02 2.01042679E-01
 6  2 1.54656292E-03-2.34427443E-03-2.66920307E-02 3.02709105E-03 2.78076010E-04
 6  3 7.42590212E-02 7.11501182E-04 1.16331105E-04 2.75779413E-02 1.33162258E-03
 6  4-5.42227615E-04 2.02306260E-02 2.58140294E-03 2.89914809E-03-5.48055103E-03
 6  5-8.20518065E-04 9.81027506E-05-1.09470922E-04 1.78756387E-03 2.44209173E-03
 6  6-4.22965561E-03-1.29228135E-03 2.13494898E-04-1.19245722E-04 6.66978796E-03
 6  7 1.19728328E-04-6.84057686E-03 4.77380381E-05 4.30012769E-03-9.02693600E-03
 6  8 4.87746923E-03 7.84764317E-05-2.08370446E-04-6.89291938E-04 3.55283264E-04
 6  9 4.20811511E-04-7.76094775E-04-1.39583445E-04 4.16931450E-06 2.15319929E-06
 6 10 7.80792616E-02 1.17486111E-01 8.28349341E-03 3.49194786E-03-6.00176023E-03
 6 11-3.60081342E-03 7.05156781E-03-1.20197057E-02-7.12035849E-03-5.88095823E-04
 6 12 1.21875554E-03-6.30659719E-04-1.85863613E-03-1.11664474E-03 1.91659413E-03
 6 13 7.96969303E-02 1.18782435E-01 4.96398194E-03 3.63385419E-03 6.48264900E-03
 6 14-3.91895002E-03 7.74249093E-03 1.30883435E-02-7.53826619E-03-7.07903690E-04
 6 15 1.37729492E-03-6.69391226E-04 2.00575745E-03-1.16206880E-03-2.11560804E-03
 6 16 8.03465089E-02 1.20206937E-01 5.73061849E-03-7.41756785E-03 1.21013578E-04
 6 17-3.92554358E-03-1.52432925E-02-5.40364681E-05-7.58776347E-03 2.36149585E-03
 6 18-1.69139355E-03-6.70102299E-04-6.57896543E-05 2.40731852E-03-5.97416860E-05
 7  1-1.47287601E-05-2.41354472E-04 5.10872530E-04-2.01121329E-04 4.27519414E-03
 7  2 9.87228334E-04-2.32975531E-02-1.01190899E-03-1.67632386E-03 4.10441772E-01
 7  3 2.80482510E-04-1.61457144E-05 1.15692591E-01-3.72575152E-04-2.45673539E-03
 7  4 1.26379972E-01 2.27441058E-03 9.46382634E-04-1.99385861E-03 1.04747597E-03
 7  5-4.12553484E-02-2.44345388E-03 4.91459765E-02 1.15101121E-03-2.71109413E-03
 7  6 1.56008292E-03-4.06921617E-02-4.85935258E-03 4.87778553E-02-4.52582465E-04
 7  7-2.75588877E-03-3.24507669E-04-7.80958809E-04 5.28689575E-04 7.48774800E-04
 7  8-9.33168512E-05-1.41571705E-04 4.47837159E-03-1.35707149E-02 1.56264080E-04
 7  9-2.88395569E-04 1.32131490E-04-7.33293844E-03-2.89002893E-04 9.15304801E-03
 7 10 1.37163778E-01 2.23702675E-01 6.70875054E-02 4.30879339E-03-4.75742173E-03
 7 11-5.19906659E-03 8.98859831E-03-6.63158128E-03-8.68851279E-03 6.35136557E-05
 7 12-4.00091458E-04 3.36577802E-04-1.19241609E-03-1.33966624E-03 1.40920958E-03
 7 13-1.38954514E-01-2.29692078E-01-6.58548449E-02-4.46578798E-03-5.25518587E-03
 7 14 5.80467905E-03-9.03457181E-03-7.50131293E-03 1.04624082E-02 1.86757698E-04
 7 15 3.04675205E-04-4.91432904E-04-1.39156724E-03 1.39535375E-03 1.83847852E-03
 7 16 9.59070250E-04 2.71863135E-03-1.73687177E-03-5.80725482E-05 2.89079881E-03
 7 17-4.25000382E-05-4.04026836E-04 1.01294007E-02-5.25095193E-04 4.28855024E-05
 7 18-4.17586243E-05-1.12687818E-06-1.83575906E-03 6.06194722E-05-8.94627849E-04
 8  1-1.06216594E-04-9.10750068E-04-8.16290504E-03-1.08960269E-03-6.94533595E-03
 8  2-2.35741726E-02 1.04770160E-03 9.79979619E-05 3.97688663E-01-3.86684244E-04
 8  3-5.15276647E-03 1.13016693E-01 3.31445877E-04-1.07882678E-03 1.20687334E-01
 8  4-2.13860162E-03-3.10835725E-03 3.69553178E-02-3.71197786E-02 1.64460787E-04
 8  5-1.46143002E-03 4.72558162E-02-2.12749234E-03 3.67593641E-02-3.65095256E-02
 8  6-2.49838569E-04-1.96111605E-03 4.32201556E-02-4.43559340E-03-2.30440228E-03
 8  7-3.26367849E-04 8.07957400E-05 6.01594780E-04 1.22049805E-02-1.45683655E-03
 8  8-1.23133794E-02 4.54851664E-03-1.63726362E-04-2.55404604E-04 6.58445871E-03
 8  9-6.55004112E-03-3.44175873E-05-2.41347056E-04 8.89971326E-03-2.54449264E-04
 8 10-7.98537491E-02-1.30224362E-01-3.81436735E-02 1.30178965E-04 4.34449644E-03
 8 11 3.00126090E-03 3.66237640E-03 9.15795550E-03 5.15212212E-03 1.42088703E-03
 8 12-1.21872715E-03-2.02159877E-04-2.69479772E-04-1.16636632E-04-1.36300924E-03
 8 13-8.18317688E-02-1.36231728E-01-3.54897982E-02 2.46739656E-04-4.83061302E-03
 8 14 3.40836850E-03 4.68047959E-03-1.06727030E-02 6.78059567E-03 1.73541651E-03
 8 15-1.43548157E-03-2.99934946E-04 2.10253038E-04-4.66281068E-05 1.66885653E-03
 8 16 1.65609089E-01 2.78941203E-01 7.61284769E-02-8.17324211E-03 3.28786669E-04
 8 17-6.76323046E-03-1.51661077E-02 1.38706036E-03-1.30743325E-02 1.13971084E-03
 8 18-1.57392392E-03 4.34213080E-04-2.29819936E-04 2.79879977E-03-2.25604019E-04
 9  1-3.43112325E-03-3.19752502E-02-3.21874438E-01-4.44669422E-02-2.19996722E-01
 9  2-1.30764003E-03-8.28475090E-05-4.86768620E-03-1.00293042E-02-1.65815448E-03
 9  3 5.17586206E-01-2.10402321E-03-9.41176724E-04 1.39101105E-01-5.44268876E-03
 9  4 4.43135554E-03 2.26734788E-01 2.16544602E-03 5.70592368E-03-7.87136970E-03
 9  5-2.80815315E-03 1.69631599E-03-9.35594421E-04-6.23374128E-04 6.74566072E-03
 9  6-6.12228659E-03-5.39254185E-03 1.51811059E-03-2.10085847E-03 3.51724964E-03
 9  7 9.29986615E-04-4.57787457E-03 5.52187551E-04 4.10600931E-03-6.04348006E-03
 9  8 2.03585393E-03 1.32459448E-03-1.79989552E-03 1.59893382E-03 1.97988187E-04
 9  9 5.85674847E-04-7.83663035E-04-3.74419523E-04 2.57892163E-04-2.64340870E-04
 9 10 5.92407579E-02 1.01490833E-01 3.05491124E-02 2.04354284E-03-3.57841299E-03
 9 11 1.21836909E-03 3.71436315E-03-6.50286309E-03 8.84187957E-03 2.04345522E-04
 9 12 1.34129244E-03-1.54563797E-03-1.17454462E-03 5.43166136E-05-9.23386455E-05
 9 13 5.76338578E-02 1.02564627E-01 3.52497522E-02 1.97950685E-03 3.58245733E-03
 9 14 1.17748133E-03 3.12575163E-03 6.42975503E-03 1.01653489E-02 1.65638161E-04
 9 15 1.32816484E-03-1.49380300E-03 1.14879672E-03 2.27221192E-05-3.42856008E-05
 9 16 6.26772493E-02 1.14987647E-01 3.61543984E-02-4.38002306E-03 9.22727589E-05
 9 17 1.10981830E-03-9.27059749E-03 6.89259689E-04 9.36619570E-03 2.10231290E-03
 9 18-4.89733975E-04-1.61257893E-03-6.56111753E-05 1.41302272E-04-6.95986279E-05
10  1 2.06754362E-02 1.88960525E-01 7.50438238E-01 1.28780402E-01 4.93517539E-01
10  2-8.99546369E-03-3.41364885E-03 1.08841498E-01-9.40573805E-02 3.08455208E-02
10  3 7.21808172E-01-3.26608023E-02 2.51788010E-02 1.81418928E-01-7.27787585E-03
10  4-2.32273552E-02 2.99393642E-01 2.62816558E-02 8.16966231E-02-1.07978279E-01
10  5-4.71566662E-02-1.02889331E-02 3.68539587E-02 1.60504307E-02 6.97845123E-02
10  6-8.58349430E-02-3.69919838E-02-1.12483196E-02 2.61129303E-02 1.45442564E-02
10  7 7.36819935E-04 4.25008149E-03 1.23215704E-03-1.57344199E-02-2.32049128E-02
10  8 1.00323372E-02 3.69174526E-03-2.22070472E-03-2.76205566E-02 1.32697485E-03
10  9 5.19831533E-03-6.52529018E-03-3.60273938E-03-8.10423109E-04 3.34374358E-03
10 10-3.01483467E-01-6.65255368E-01-7.95458931E-02-6.04863720E-03 1.06280638E-02
10 11 4.39849490E-03-5.12915499E-02 8.99012328E-02 2.70567144E-02-5.28880655E-04
10 12-7.12746452E-03 7.65634518E-03 6.15019418E-03 2.20716944E-05-4.20377022E-04
10 13-2.59725110E-01-6.01124838E-01-8.83486354E-02-6.55994703E-03-1.48129066E-02
10 14 8.66105478E-03-4.09254494E-02-9.44188856E-02 2.74430921E-02 2.43338539E-03
10 15-9.30938214E-03 6.87599675E-03-7.67832581E-03 2.00171075E-03 5.49124202E-03
10 16-2.18570417E-01-5.08480995E-01-8.39784399E-02 1.32902126E-02-1.48812339E-03
10 17 8.03385827E-03 8.68455202E-02-1.00720554E-02 2.17810759E-02-1.06005179E-02
10 18 4.60066746E-03 5.99985040E-03 1.63729142E-03-4.71628263E-03 6.47451220E-04
11  1 9.86459087E-04 1.07157456E-02 5.15749166E-02 7.76637722E-03 8.36290784E-02
11  2 1.05206710E-01 1.63497806E-03 1.47090851E-02 8.23065991E-01-1.13971462E-02
11  3 8.09385947E-02 2.01355497E-01-1.01533503E-02 1.44606947E-02 2.15875135E-01
11  4 1.19867262E-02 4.08005420E-02 3.62905996E-02-1.32224215E-02-2.30681781E-02
11  5-4.37888510E-03-8.45197839E-02-3.58399445E-02 7.85168219E-02-5.31346797E-02
11  6-2.53821422E-02-1.23907359E-02-2.21794744E-02-3.48131235E-02 1.01131591E-02
11  7 5.00586977E-03 9.50927559E-03-7.99197840E-03-2.10056171E-02 8.58575076E-03
11  8 8.24758512E-03-2.21539775E-02 1.27589934E-03 2.71957865E-03 1.27671361E-03
11  9 5.82768593E-04-1.85948220E-03-3.70388923E-04-9.00604166E-03-3.39150649E-03
11 10 1.23759654E-01 2.64440499E-01-4.62086746E-07 3.81799086E-03-3.58410565E-03
11 11 2.05990751E-04 2.08730628E-02-3.42419401E-02-1.36454245E-02-3.06297059E-04
11 12 2.68855255E-03-2.38225549E-03-1.02598569E-03-1.02843483E-04 5.19165537E-04
11 13 1.07034497E-01 2.38563947E-01 2.42596437E-03 4.90273031E-03 5.46430380E-03
11 14-1.21590372E-03 1.65456384E-02 3.81203414E-02-1.61348037E-02-1.28390429E-03
11 15 3.41759748E-03-2.13369319E-03 1.59275039E-03-8.78494887E-04-2.50401446E-03
11 16-2.95229766E-01-6.87955862E-01-4.25505422E-02 1.92939333E-02-2.45074955E-03
11 17 4.60663306E-03 1.14886508E-01-9.27641121E-03 3.92107236E-02-1.24360285E-02
11 18 5.33892310E-03 7.09710537E-03 2.22158137E-03-7.59344447E-03 2.09183699E-03
12  1 1.33571970E-03 9.54576369E-03 2.07405971E-02 5.79553868E-03-7.28413852E-02
12  2 1.05579258E-03 1.04415972E-01-8.92246086E-03-2.20311366E-02 8.44555756E-01
12  3-1.45224626E-02-1.44744392E-02 2.18052842E-01 6.89494259E-03 1.20948911E-02
12  4 1.97456718E-01-1.84728193E-02-1.12233525E-02-1.07624416E-02 2.19857941E-02
12  5-2.99347827E-02-3.84473734E-02-3.67821838E-02-7.29767789E-03-2.14251702E-02
12  6 2.87228481E-02-6.69864648E-02-3.69107266E-02 2.36291820E-02 5.72566510E-03
12  7 1.72688172E-02-1.53634711E-02 1.25835215E-03 5.80587727E-03-9.39056808E-03
12  8 1.48063821E-02 1.70878225E-03-2.44269016E-02 9.99249075E-03-1.01601796E-03
12  9-1.08112540E-03 2.09714336E-03-3.73587491E-04-3.62815909E-03-4.60588673E-03
12 10-2.65317044E-01-5.69607983E-01-1.20559272E-02-4.47196488E-03 9.71872044E-03
12 11 4.87002498E-04-4.24810254E-02 7.53867628E-02 2.87015484E-02-1.13593153E-03
12 12-4.22997577E-03 5.36590730E-03 3.87734670E-03 4.63551093E-04-8.82871639E-04
12 13 2.45734800E-01 5.74964418E-01 3.47557728E-02 4.97270115E-03 1.56734699E-02
12 14-3.40259119E-03 4.17556856E-02 8.49375065E-02-3.23182747E-02-1.90472399E-03
12 15 7.90426066E-03-5.99953667E-03 6.95403055E-03-1.43466258E-03-6.68113534E-03
12 16 1.14788713E-02 3.83291667E-02 8.93658455E-03-6.86667228E-04 2.94864549E-03
12 17 9.86512032E-05-4.39793944E-03-1.94783422E-03-6.36037845E-05 1.47877252E-03
12 18-8.01324029E-04-6.77448492E-04 8.47641334E-04 5.46663165E-04-5.50362745E-04
13  1-8.87017070E-03-6.45640815E-02-9.40074891E-04-7.08360733E-02 2.73471574E+00
13  2 1.58556610E-02-2.92399359E-02 2.25257221E-02 6.57055752E-02-1.19315250E-01
13  3 4.18708399E-02 5.73030921E-03-9.92077918E-03-1.94725050E-02-1.42783540E-02
13  4 7.31931859E-04 1.16336765E+00-1.13611935E-03-2.27753924E-02 2.39115118E-02
13  5 1.92112065E-02 5.34216439E-03-1.14572052E-02-4.70425664E-02-1.20058054E-01
13  6 1.67100620E-01 6.16323264E-02-3.45463195E-04-1.54080658E-02 3.17324910E-02
13  7-4.05072232E-06-3.93344876E-02-2.23260349E-05 2.82718349E-02-4.17457021E-02
13  8 2.45009180E-02-8.27902068E-04 2.77606492E-05 3.84535916E-03-2.04920394E-03
13  9-7.34548777E-03 9.39469171E-03 4.42367227E-03 3.91662308E-04-1.29756656E-03
13 10 4.10394938E-02 1.80730174E-01-1.21553355E+00 8.32864894E-03-1.43759323E-02
13 11-2.85999497E-03-6.72237458E-02 1.14207620E-01 4.56408968E-02 9.89474016E-04
13 12-2.61013543E-03 1.62066141E-03 3.47872788E-03 1.25074324E-03-2.24781047E-03
13 13 4.39994533E-02 2.58382043E-01-1.66831718E+00 1.03677459E-02 1.98186820E-02
13 14-6.08906637E-03-8.13677342E-02-1.29604671E-01 5.06240959E-02 1.91408692E-03
13 15-3.38200687E-03 1.46791995E-03-4.58642290E-03 2.55263055E-03 4.34879473E-03
13 16 4.38870253E-02 2.64253327E-01-1.64271776E+00-2.22365802E-02 9.38168516E-04
13 17-5.92341216E-03 1.50879817E-01 4.75082525E-03 4.77424347E-02-5.31422308E-03
13 18 3.93862488E-03 1.37559820E-03 3.04239196E-04-4.95524581E-03-6.23538589E-05
14  1 7.08336002E-05 5.35844850E-04 8.09646721E-04 3.09303703E-04 1.71266809E-03
14  2-1.35466789E-01-7.58815326E-02 4.37872601E-04-5.15517957E-01-2.88467624E-01
14  3 1.52400182E-03-2.29346636E-02-1.28147107E-02 1.79959777E-04-1.61530367E-01
14  4-9.45543216E-02-1.47056779E-03-3.04224316E-02 3.05554259E-02-1.32994289E-04
14  5 1.97645442E-02-5.50693535E-02-3.06459809E-02-1.09568854E-01 1.10894608E-01
14  6-1.32575420E-03 7.14139754E-02-1.79801364E-01-1.00816456E-01 2.21813142E-03
14  7 1.83632448E-03 3.97680839E-05-6.95322422E-05-1.13541265E-02 1.02887791E-03
14  8 1.13007720E-02-4.00481350E-03-2.39415557E-03 7.53822958E-03-5.62359983E-03
14  9 5.70074499E-03-7.71451583E-05 3.62667691E-03-1.04028589E-02-5.74901530E-03
14 10 3.33479725E-04 8.20864359E-03-2.12584575E-02 2.76667658E-03 1.33519234E-03
14 11-1.80984047E-04-1.05566691E-02-5.58969785E-03 5.99805826E-04-4.75256737E-04
14 12 5.02784431E-04-2.75276936E-05 4.05403046E-04-3.16352430E-04-3.25342251E-04
14 13 1.96237041E-02 3.65826632E-01-1.57231974E+00 1.01203050E-02 1.48136428E-02
14 14-1.00172216E-02-4.33121298E-02-6.31360819E-02 5.13614113E-02 2.06889569E-03
14 15-2.32865380E-03 2.59758108E-04-5.42355241E-03 3.73968295E-03 6.88587912E-03
14 16-1.96984899E-02-3.73665150E-01 1.59181644E+00 1.81518859E-02 1.18794277E-03
14 17 1.00864221E-02-7.62008911E-02-5.11334975E-03-5.15021130E-02 5.41732167E-03
14 18-5.10423070E-03-3.13090972E-04 4.35559379E-04 7.90339074E-03-1.89909447E-04
15  1 2.26648411E-03 1.80657842E-02 2.80480284E-02 2.31614927E-02-5.87102134E-01
15  2 7.80483362E-02-1.40875969E-01-5.21899427E-03 2.89468789E-01-5.21870581E-01
15  3 8.91493386E-03 1.17873816E-02-2.12983629E-02 1.06033548E-02-2.96738088E-02
15  4 6.34147118E-02-2.39390389E-01 2.26206813E-02-1.54385115E-02-7.18216981E-03
15  5 4.19618518E-02 3.05890505E-02-5.32545388E-02 9.29481031E-02-4.13932232E-02
15  6-5.15548799E-02 1.50549590E-01 7.39491440E-02-1.21197140E-01-8.48649819E-03
15  7 8.79669772E-04 1.02349074E-02 2.66749541E-04-3.39219169E-03 1.03607439E-02
15  8-1.03393775E-02 1.02508819E-03-1.44695039E-03 7.39487907E-03 5.56329726E-03
15  9-2.72809297E-03-2.83520429E-03 9.36159905E-03 5.42347191E-03-9.08746107E-03
15 10-3.84642738E-02-5.36160315E-01 1.88802818E+00-1.19424555E-02 2.07982884E-02
15 11 1.05966466E-02 5.84187981E-02-9.97248584E-02-5.72220444E-02-3.28637305E-03
15 12 3.49551234E-03-2.09139296E-04-6.72940837E-03-5.07337777E-03 8.77976007E-03
15 13-7.52738024E-04 1.65190929E-01-4.82982874E-01-4.49324025E-04 6.55480364E-03
15 14-4.19701141E-03 9.11609511E-03-2.97395453E-03 8.79279182E-03 1.98858803E-03
15 15-1.23896145E-03-7.49626581E-04-8.65421217E-04 2.23874840E-03 2.60093613E-03
15 16-1.63421435E-03 1.53246009E-01-4.45031925E-01-4.85713744E-03 3.65311092E-03
15 17-3.97607686E-03-5.12008837E-03-7.89662721E-03 8.87639415E-03-1.01694770E-03
15 18 1.70576331E-03-6.88815615E-04 1.25316945E-03-3.10233083E-03-5.70522612E-04
16  1-7.29899998E-04-5.22026846E-03-7.19927243E-03-2.20641378E-03 5.16321011E-02
16  2-3.87593106E-02-1.98529911E-02-4.05721330E-03-1.23593174E-01-6.33283436E-02
16  3-1.62485147E-02-7.69940114E-03-4.09475198E-03-1.41792820E-03 8.69266904E-01
16  4 4.62661919E-01 3.89678479E-02-8.21640548E-02 7.62949906E-02 5.86906422E-03
16  5 4.93965301E-02 4.96819321E-02 2.78936123E-02-3.90953685E-01 3.52830129E-01
16  6 3.81235558E-02 2.32513889E-01 5.07098064E-01 2.76873595E-01-1.07547943E-02
16  7-6.99184960E-03-4.84026872E-04-1.47740468E-03 1.43717233E-02-5.72306874E-03
16  8-1.37223331E-02 2.01521394E-02 1.08579553E-02-8.87372235E-03-2.96878538E-02
16  9 2.73993335E-02 2.28852026E-03 1.78364495E-02 2.15882185E-02 1.19237255E-02
16 10 6.10604177E-04 5.63429593E-03-1.64653019E-03 4.30105695E-03 2.17287250E-03
16 11 2.35424312E-04 5.16840481E-02 3.02695877E-02 2.23471395E-04-4.95838915E-03
16 12 4.84227028E-03 1.16118870E-04 3.31344722E-03 2.18687900E-03 1.30805108E-03
16 13 3.25868257E-03 1.14325088E-01 6.51270441E-01 1.15006220E-03-2.93684097E-03
16 14 4.51549833E-03 4.65369831E-02 4.00237969E-03-8.89116854E-02-2.63836435E-03
16 15 5.69918238E-03-3.06081802E-03 1.94540269E-03 8.86187850E-04-4.21175476E-04
16 16-2.94069172E-03-1.24230740E-01-7.08907451E-01-2.58190598E-03 2.08432085E-03
16 17-4.50885776E-03 3.01376852E-02 3.60077612E-02 9.85075829E-02-5.72685954E-03
16 18 2.06479055E-03 3.66206899E-03 2.87326118E-03 2.84032275E-04 9.32022345E-04
17  1-3.79933150E-03-2.32617850E-02 1.59705459E-02 2.53887186E-03 1.27544518E-01
17  2-4.96650251E-03 1.18054848E-02-8.30457667E-02-1.52830319E-02 3.78542304E-02
17  3-2.83832901E-01-1.77543059E-03 4.32742263E-03-7.15201169E-03 2.04763943E-01
17  4-4.61469158E-01 4.50087080E-01-6.59812194E-02-3.30815138E-02 9.90627332E-02
17  5-4.36843159E-02 1.16846180E-02-2.68614098E-02-4.02916504E-01-2.41163289E-01
17  6 6.44079793E-01-2.14211878E-01 1.16034226E-01-2.66231367E-01-9.89386297E-03
17  7 6.42577868E-03 1.03909705E-02 2.70070956E-03-3.82362721E-03 8.39157678E-03
17  8-1.01173226E-02 4.88243333E-03-1.13217963E-02 8.67736013E-03-2.55657417E-02
17  9-1.30713785E-02 3.86371202E-02-1.65443055E-02 4.94856333E-03-1.13179600E-02
17 10-1.84351821E-02-1.33027650E-01 5.70916290E-01-1.99051269E-03 2.91748348E-03
17 11 6.39622510E-03 2.85034447E-02-5.51724154E-02-2.58833190E-02-1.48625938E-03
17 12-5.24851038E-04 2.01111042E-03-1.73235926E-03-2.27468587E-03 3.63146500E-03
17 13-1.68967072E-02-1.75222003E-01-2.51194210E-01 1.93025033E-03-2.11270382E-05
17 14 7.72854518E-04 3.89866750E-02 1.04838069E-02 7.34446587E-02-3.47716790E-03
17 15-1.76760355E-03 5.24477145E-03-3.26193644E-03-9.03794481E-04-3.01038342E-03
17 16-1.69662879E-02-1.64357449E-01-1.66855904E-01-5.68808090E-04-1.86317528E-03
17 17 1.22163391E-03-3.27248413E-02-3.31336672E-02 6.33407097E-02-3.96015572E-03
17 18-8.89938190E-04 4.85009391E-03-2.83526668E-03 3.14616149E-03-8.35452160E-04
18  1-2.42502610E-04 2.07936636E-03 5.60903957E-02 1.00409446E-02-5.58553217E-02
18  2 3.46468513E-03-5.78103645E-03-7.50712818E-02 1.99720950E-02-3.39699392E-02
18  3-2.37565869E-01 5.41751087E-03-9.20239990E-03 1.46688053E-03-2.02213056E-01
18  4 3.36019028E-01 3.65101711E-01 1.41843155E-02-5.95841248E-02 4.53998094E-02
18  5 7.34907084E-02-3.25746471E-02 5.72458523E-02 4.84636773E-02-3.59640003E-01
18  6 3.11176326E-01 4.08248214E-01-2.47416544E-01 4.28806124E-01-2.35797410E-03
18  7-7.37894428E-03 1.17772310E-02-3.25851259E-03-1.04792411E-02 1.08890291E-02
18  8-5.32157235E-03-7.72547493E-03 1.31584052E-02-5.01220065E-03 4.86693083E-03
18  9-2.31967376E-02 1.83298068E-02 2.79944566E-02-1.26783433E-02 2.21702143E-02
18 10-1.49122313E-02-1.69144578E-01-3.41522549E-01 3.89514141E-04-7.61367667E-04
18 11-8.01881129E-04 1.19214762E-02-2.05709562E-02 8.51639937E-02-1.32245823E-03
18 12-4.45130939E-03 5.77376762E-03 3.08349884E-03-1.51574913E-03 2.63396952E-03
18 13-1.92155402E-02-1.41337496E-01 3.25426782E-01-1.87394778E-03-1.82465874E-03
18 14 4.42683157E-03-4.45690133E-02 6.68340844E-02-3.11239940E-02 1.99600090E-03
18 15-2.31756529E-03 3.21564391E-04 4.11008930E-03-3.61933105E-03-9.40620635E-04
18 16-1.92372251E-02-1.40302458E-01 3.35605661E-01 2.59686709E-03 5.63422452E-04
18 17 4.46052180E-03-3.64131824E-02 7.33681477E-02-3.12175092E-02 1.92872841E-03
18 18-2.21768678E-03 2.88958370E-04 4.17122421E-03 2.65157731E-03 2.66597318E-03
19  1 2.01170837E-02 1.44589245E-01 3.32600258E-01 1.01781627E-02 1.15075013E-01
19  2 6.43896454E-03-1.17730292E-02-2.77224809E-01 2.93118893E-02-5.22647322E-02
19  3-9.91940490E-01 4.03025134E-03-6.60363791E-03-2.33627296E-02-1.98186361E-01
19  4 3.38718552E-01 1.49909530E+00 2.34351226E-02 3.30585027E-02-5.64936253E-02
19  5-9.11992834E-03 5.51527658E-03-9.38748719E-03 5.72727945E-02 1.64840631E-01
19  6-2.22113425E-01-1.04528125E-01-1.04330151E-03-1.65384138E-03-2.56781013E-03
19  7-2.66471680E-03-1.77709888E-04-1.09032499E-03-6.27441485E-03 6.41499192E-03
19  8 6.51283768E-03-2.96991311E-03 4.66541773E-03-1.27694240E-02 6.74750578E-03
19  9 1.06508851E-02-1.73983909E-02-3.70294870E-03 2.12669296E-03-3.74056128E-03
19 10 1.41084419E-02-1.12711190E-01-5.35315772E-01 4.12736658E-03-7.14068453E-03