 !#############################################################################
 !                   D_3h RHF GEOMETRY OPTIMIZATION AND HESSIAN TEMPLATE
 ! ---------------------------------------------------------------------------
 ! Replace the symmetry-correct coordinates, should only be two atoms.  
 ! The hydrogen or fluorine should have only one non-zero x,y,z coordinate.
 ! 
 ! Basis set?   gbasis=ccd for 2nd row, 
 !                         cct 3rd/4th,
 !                   SPKrTZP for heavy,
 !                   SPKrTZC beyond 4th
 ! 
 !#############################################################################
 $system kdiag=3 mwords=500 memddi=3000 parall=.t. $end
 $contrl runtyp=energy ispher=1 $end
 $contrl icut=9 itol=20 inttyp=rysquad qmttol=1.0d-05 nosym=1 $end
 $contrl scftyp=mcscf  mult=2 maxit=200 icharg=1 mplevl=2 $end
 $scf    npunch=2 conv=1.0d-06 dirscf=.t. $end
 $force  method=seminum $end
 $trans  dirtrf=.t. $end
 $statpt hssend=.t. $end
 $basis  gbasis=cct $end
 !#############################################################################
 !
 !                       TURN ON THIS SECTION IF HEAVY ATOM
 !
 !#############################################################################
 !
 -contrl relwfn=LUT-IOTC $end
 -scf  diis=.t. soscf=.f. ethrsh=10.0 $end
 -guess iorder(25)=27,25,26 $end
 -gmcpt nsolut=100 $end
 !
 !#############################################################################
 !
 ! TURN ON THIS SECTION IF GMCPT, CHANGE runtyp=energy, scftyp=mcscf, change nosym=1
 !
 !#############################################################################
 $guess   guess=moread norb=81 purify=.t. norder=1 $end
 $mcscf   cistep=gmcci fullnr=.t. finci=mos
          acurcy=1.d-5 maxit=200 $end
 $mrmp    mrpt=gmcpt rdvecs=.f. $end
 $gmcpt   nmofzc=1 nmodoc=4 nmoact=7 nelact=7 stsym(1)=A
          reftyp=ormas nspace=1 mstart(1)=6 mine(1)=7 maxe(1)=7
          kstate(1)=1,1,1
          wstate(1)=1,1,1
          iwgt=0 thrwgt=-1.0 krot=.f. kszdoe=.f. knospn=.t.
          thrde=-1.0 edshft=0.02 $end
 $transt $end
 !#############################################################################
 !
 !             TURN OFF THIS SECTION IF temp.inp, add C1
 !
 !    IF SOC, $transt $end, turn knospn=.t., restart from gmcpt states calc
 !
 !#############################################################################
 -data
 PH3 geomopt
 C1
 P          15.0  -0.0000241839   0.0000000030  -0.2461464716
 H           1.0  -0.5931024567   1.0273565799   0.5139412054
 H           1.0  -0.5931025435  -1.0273565264   0.5139412059
 H           1.0   1.1862291841  -0.0000000535   0.5139565203
 -end
Semi-canonical MOs --- generated at Tue Apr 30 14:57:42 2024
 $VEC   
 1  1 1.00013652E+00 1.75456558E-04 2.76623537E-04-9.35148782E-04-1.69421448E-04
 1  2 6.09405887E-06-1.94090770E-10 5.82892405E-05 2.51809967E-06-2.25443737E-10
 1  3 1.01111091E-04-3.01858450E-06 1.08167580E-10-3.71635226E-05-6.09236272E-08
 1  4-1.26665822E-10-3.75881321E-05 2.90198640E-06-6.16151140E-07-2.28583526E-06
 1  5 8.13166183E-11 7.52569220E-07-8.60083413E-11 1.58971508E-06 2.15237268E-07
 1  6-1.80495234E-06 1.30932085E-10 1.71845298E-06-8.37049543E-11 8.29375630E-06
 1  7-2.85846278E-11-9.68461978E-06 3.72715461E-11 7.49153071E-06-1.14213512E-05
 1  8 5.50175020E-06 2.94109470E-07 0.00000000E+00 5.75740610E-11-6.11597497E-07
 1  9 5.99927325E-07 1.16701719E-08 3.57902753E-11-2.00413875E-07 0.00000000E+00
 1 10 1.25521236E-05-2.39802767E-05 4.17658994E-05 1.06967265E-06-1.81419696E-06
 1 11-1.59928024E-06-9.52909419E-06 1.62251551E-05 1.13037457E-05-2.16441504E-06
 1 12 2.15622041E-06 8.19462971E-09-4.39457929E-06-3.66152502E-06 6.15494407E-06
 1 13 1.25522273E-05-2.39806767E-05 4.17659225E-05 1.06966465E-06 1.81431712E-06
 1 14-1.59922133E-06-9.52902085E-06-1.62254310E-05 1.13038129E-05-2.16439826E-06
 1 15 2.15615986E-06 8.23840431E-09 4.39455729E-06-3.66146292E-06-6.15499129E-06
 1 16 1.15129618E-05-3.24686591E-05 3.97410033E-05-1.87382473E-06 8.95284336E-11
 1 17-1.49962964E-06 2.12820813E-05-5.78319761E-11 1.30732105E-05 4.17612847E-06
 1 18-4.17463411E-06-1.49435512E-09 9.85854044E-11 6.83534106E-06 4.21743223E-11
 2  1-4.18399764E-04 9.54271805E-01-1.64701216E-03 6.25586813E-02 3.62440394E-03
 2  2 6.42172335E-04-2.13448794E-08-4.30401038E-04 3.77616396E-05 8.93786753E-09
 2  3-5.35625584E-04 1.64576472E-04-1.60394960E-09 3.12797941E-04 1.30662736E-05
 2  4 4.07966305E-09 5.32649528E-04 1.00965908E-04-8.08414171E-05-2.01244904E-05
 2  5 2.85100371E-09 7.45551133E-05-1.62797510E-09-2.73893810E-05-4.56774879E-07
 2  6 2.78461559E-05-1.84676546E-09 1.00494497E-05 7.97561885E-10 3.94532384E-05
 2  7 4.73596950E-10-4.29163040E-05 2.37254493E-10 5.49442314E-05-6.29031952E-05
 2  8 2.63403250E-06 9.97112136E-06-8.71940362E-10 7.96143189E-10 1.91393140E-04
 2  9-1.66813809E-04-2.45793311E-05 8.45840298E-09 8.93593900E-05-3.34075534E-09
 2 10 2.60086487E-04 8.73727064E-04-5.56227495E-04 2.29350889E-05-3.56182150E-05
 2 11-1.76170907E-05 1.76168626E-04-2.77025050E-04-2.21832882E-04-9.84320250E-06
 2 12 1.96877182E-05-9.84451572E-06-4.77683000E-05-3.30631189E-05 4.51588459E-05
 2 13 2.60077228E-04 8.73701097E-04-5.56230975E-04 2.29344622E-05 3.56172300E-05
 2 14-1.76155405E-05 1.76165871E-04 2.77020473E-04-2.21829452E-04-9.84220480E-06
 2 15 1.96862989E-05-9.84409407E-06 4.77672330E-05-3.30621330E-05-4.51573163E-05
 2 16 2.19391885E-04 6.13965887E-04-5.92051243E-04-1.89902097E-05-1.37833737E-10
 2 17-6.32410719E-07-2.20038685E-04 2.77023536E-10-1.49432100E-04 2.57020545E-05
 2 18-1.49680672E-05-1.07339873E-05 4.46270219E-10 1.79262370E-05-3.87602272E-11
 3  1-8.14466004E-05-1.01756571E-03 3.88610087E-04 5.22161488E-04-4.67136849E-04
 3  2 8.40124381E-01 5.00448071E-06 4.62401922E-01-1.92019811E-03-3.74206035E-08
 3  3-3.59166557E-04 6.90471033E-02 4.19088977E-07 3.75729213E-02 8.29949167E-04
 3  4-2.32961850E-09 5.45874068E-04 2.70427147E-04-1.78326663E-04-9.21004842E-05
 3  5-1.93534910E-09 2.36096858E-04-1.14562360E-09-3.52997984E-04 6.54922309E-04
 3  6-3.01924325E-04 5.66780294E-09-1.39580262E-03-1.78483494E-08 1.83294255E-04
 3  7 4.85138358E-10-8.13247945E-05 3.67442892E-09-6.78046044E-06-1.12666888E-04
 3  8 1.15889122E-04-1.33248161E-04-4.32549443E-09 2.15685534E-09-1.39623741E-04
 3  9 9.63701321E-05 4.32536089E-05 8.75318793E-11-8.30789465E-05-1.14698526E-09
 3 10-1.11991740E-05-7.84742986E-04 6.78569772E-05 3.65204174E-06-1.37279126E-05
 3 11 2.37078432E-06 3.20251379E-04 3.07874223E-04 4.07526751E-04 4.92440118E-05
 3 12-2.65722716E-05-2.26717402E-05-5.97407498E-05 6.54687678E-06 1.23566586E-06
 3 13-1.11948816E-05-7.84772530E-04 6.78582367E-05 3.65258117E-06 1.37281856E-05
 3 14 2.37044218E-06 3.20237927E-04-3.07883509E-04 4.07534856E-04 4.92425344E-05
 3 15-2.65716209E-05-2.26709135E-05 5.97406278E-05 6.54668782E-06-1.23691280E-06
 3 16 6.94700576E-04 3.30186759E-03 1.42097757E-05 6.37337681E-05-6.27050826E-10
 3 17 2.09092317E-05-1.12654841E-03 3.65497915E-09-5.69606783E-04-4.65778469E-05
 3 18 6.93977192E-05-2.28198723E-05-4.42474543E-10-1.18525367E-04 9.55268492E-10
 4  1 2.68927363E-08 3.30338928E-08-1.79913487E-06-4.16160985E-07-2.62643415E-09
 4  2 2.10346250E-04 9.59407727E-01-3.93344358E-04-4.62212567E-07-2.62600922E-05
 4  3-3.87010555E-08 1.72495160E-05 7.81229383E-02-3.18821600E-05 1.95769206E-07
 4  4 1.43377530E-03-5.03518084E-07 4.21241834E-08-9.23059011E-08 5.01817182E-08
 4  5-2.18526919E-04 8.43824442E-09 3.54264165E-04-2.54022152E-07 2.12872464E-08
 4  6 2.32734905E-07 4.73774715E-04-3.75622861E-07-1.17457743E-03-1.73179164E-08
 4  7-5.36894400E-06 5.98891679E-08 1.02486113E-04-9.23114656E-08 8.78889877E-08
 4  8 1.19617150E-08-6.46545647E-08-9.52829191E-05 1.36370027E-04 3.00439780E-09
 4  9 9.06441817E-08-9.36485797E-08 3.94039806E-04-7.88446063E-08-2.26264308E-04
 4 10 1.02568759E-03 3.50190515E-03 2.35245089E-04 5.47128794E-06 5.39575117E-06
 4 11-2.52073139E-05 6.51573877E-04-5.89568795E-04-6.79893046E-04 4.02124396E-05
 4 12-4.45681326E-05 4.35569298E-06 1.58286115E-05 1.73643059E-05-3.25081168E-05
 4 13-1.02665554E-03-3.50432108E-03-2.35430093E-04-5.48891534E-06 5.37283688E-06
 4 14 2.52254160E-05-6.51799876E-04-5.90346232E-04 6.80006766E-04-4.02102221E-05
 4 15 4.45423134E-05-4.33209135E-06 1.58566449E-05-1.73926830E-05-3.25761672E-05
 4 16-2.56823418E-07 9.43142148E-09-5.64374227E-08 1.77056639E-08 7.55711400E-06
 4 17 6.01187275E-09 2.99079208E-08 4.80056242E-04-2.11324772E-07-9.38326044E-09
 4 18 2.78921363E-09 6.59404680E-09-5.71707639E-05 1.20716689E-08 2.32431039E-05
 5  1-5.39907689E-05-1.05131365E-06 4.07580488E-03 9.02060065E-04 8.03065120E-05
 5  2-4.62005295E-01 4.45959977E-04 8.41024290E-01 9.20870887E-04 6.49911401E-08
 5  3 1.32897351E-04-3.78625418E-02 3.63176693E-05 6.81638951E-02-4.54466997E-04
 5  4 6.88266143E-07 1.08991987E-03-9.30885621E-05 2.00302480E-04-1.07213918E-04
 5  5-1.06982493E-07-3.13159779E-05 1.68834152E-07 5.40196925E-04-4.55336280E-05
 5  6-4.94663297E-04 2.13454676E-07 8.07364887E-04-5.35337226E-07 3.40165181E-05
 5  7-1.15640441E-09-1.29576472E-04 4.67884054E-08 1.99500918E-04-1.82493291E-04
 5  8-2.56558387E-05 1.36855343E-04-4.52372554E-08 6.43338524E-08-1.44122185E-06
 5  9-2.02844150E-04 2.04285372E-04 1.85133636E-07 1.72388365E-04-1.08336760E-07
 5 10 1.08746710E-03 2.67154190E-03 2.07344616E-04 2.09982737E-05-2.84563128E-05
 5 11-2.20509141E-05 2.40626255E-04-8.41910177E-04-1.32072573E-04-3.01715996E-06
 5 12 2.74580756E-05-2.44409156E-05 3.01131331E-05 2.94410222E-05-7.18524777E-05
 5 13 1.08646397E-03 2.66820687E-03 2.07100443E-04 2.09909672E-05 2.84584208E-05
 5 14-2.20244825E-05 2.40019549E-04 8.41356249E-04-1.31438291E-04-3.05406211E-06
 5 15 2.74984185E-05-2.44443564E-05-3.00992827E-05 2.94252145E-05 7.18236047E-05
 5 16 5.47532934E-04-5.69482896E-05 1.13832871E-04-4.00605476E-05 4.24777142E-09
 5 17-1.44776546E-05-5.51089010E-05 2.22986163E-07 4.59190900E-04 2.09623033E-05
 5 18-6.96448063E-06-1.39978227E-05-2.66324433E-08-2.56599471E-05 1.04726644E-08
 6  1 6.95412072E-04-1.56515163E-03 5.36681669E-01 6.27585726E-02 2.01022708E-01
 6  2 2.62528002E-03-1.60252198E-07-2.65467674E-02 2.94878478E-03-1.92184134E-07
 6  3 7.42824926E-02 6.22509622E-04-4.62281638E-08 2.76007479E-02 1.59484019E-03
 6  4-1.06537222E-07 2.02231443E-02 2.21169263E-03 3.24941714E-03-5.46110977E-03
 6  5-1.99628064E-08 2.60266054E-04-1.13170864E-08 1.23432374E-03 2.98058987E-03
 6  6-4.21491361E-03-3.46126234E-08 2.64738195E-04-2.31716172E-08 6.67260166E-03
 6  7 5.35033689E-09-6.84530595E-03 4.21825399E-09 3.99623212E-03-9.03135364E-03
 6  8 5.18770955E-03 7.91191007E-05-1.13955344E-08-3.00320923E-08 2.91796095E-04
 6  9 4.82140118E-04-7.73936214E-04-3.89962662E-09-1.94864098E-05-1.02479491E-09
 6 10 7.87314312E-02 1.17886381E-01 7.16624949E-03 3.48668186E-03-6.20229914E-03
 6 11-3.71970890E-03 7.33853300E-03-1.22790848E-02-7.27059260E-03-6.34315280E-04
 6 12 1.27139372E-03-6.37078439E-04-1.89228938E-03-1.11237224E-03 1.99621708E-03
 6 13 7.87315672E-02 1.17886579E-01 7.16615765E-03 3.48668911E-03 6.20231980E-03
 6 14-3.71972432E-03 7.33857860E-03 1.22791404E-02-7.27061864E-03-6.34318578E-04
 6 15 1.27139901E-03-6.37080429E-04 1.89229688E-03-1.11237458E-03-1.99622566E-03
 6 16 8.06544939E-02 1.20712890E-01 4.63597322E-03-7.55241829E-03 4.16529327E-09
 6 17-4.00136831E-03-1.57385337E-02-1.20296514E-08-7.72273300E-03 2.44911235E-03
 6 18-1.75594591E-03-6.93166446E-04-9.13185429E-10 2.46579483E-03-2.34050015E-09
 7  1 7.52824472E-09 3.35329508E-08 5.65578692E-07 6.50948547E-08 4.94909906E-07
 7  2 5.30725416E-07-2.38468693E-02-8.87081386E-08-8.16949292E-06 4.11418331E-01
 7  3 2.99570892E-07-2.29751144E-06 1.15788609E-01 5.50322775E-08-2.53239128E-06
 7  4 1.27697385E-01 2.22001846E-07-7.38933216E-07 6.92142857E-07 4.67903539E-08
 7  5-4.03288287E-02-1.01844805E-06 5.08374535E-02-7.44836045E-07 6.55122978E-07
 7  6 8.97130656E-08-3.93173920E-02-1.03977890E-06 5.18950385E-02 2.09411184E-08
 7  7-2.91611481E-03-2.69172933E-08-6.78159714E-04-2.22553674E-07 6.20094402E-08
 7  8 2.58667006E-07-9.01048988E-08 4.59053828E-03-1.34929137E-02-1.30782648E-07
 7  9 1.22202347E-07 8.58030617E-09-7.19372182E-03-1.87101653E-07 9.35644576E-03
 7 10 1.37488165E-01 2.24636732E-01 6.72313933E-02 4.24451462E-03-4.96998017E-03
 7 11-5.41151704E-03 8.41941407E-03-7.03706368E-03-9.12028794E-03-7.19026253E-05
 7 12-3.15411789E-04 3.87314415E-04-1.19913219E-03-1.27444317E-03 1.58922211E-03
 7 13-1.37485103E-01-2.24632030E-01-6.72299466E-02-4.24453460E-03-4.96982335E-03
 7 14 5.41141555E-03-8.41960852E-03-7.03677470E-03 9.12015651E-03 7.18519695E-05
 7 15 3.15457206E-04-3.87309176E-04-1.19915375E-03 1.27444973E-03 1.58918041E-03
 7 16-3.21663568E-06-5.39580744E-06-1.59961836E-06 1.56229047E-07 2.93290188E-03
 7 17 1.35690790E-07 2.80277069E-07 1.03672723E-02 2.43966616E-07-2.15515730E-08
 7 18 3.10080166E-08-9.45644358E-09-1.86815986E-03-5.45310528E-08-8.71069227E-04
 8  1-9.28103139E-05-8.71924706E-04-7.94762175E-03-8.31878034E-04-1.01743374E-02
 8  2-2.30359946E-02-4.45383896E-07-5.19049666E-04 3.96819176E-01 7.91461932E-06
 8  3-5.16204911E-03 1.13017803E-01 2.25094191E-06-8.22381516E-04 1.19128197E-01
 8  4 2.40358791E-06-4.98022498E-03 3.86469403E-02-3.72609621E-02-1.38597818E-03
 8  5-8.46826892E-07 4.59600048E-02 9.07434457E-07 3.91243657E-02-3.66778466E-02
 8  6-2.44651911E-03-8.50316371E-07 4.04748032E-02 8.09498412E-07-1.56034315E-03
 8  7-8.50153016E-08 5.05074805E-04 2.76236115E-08 1.20492530E-02-2.31157942E-03
 8  8-1.27268820E-02 4.40499943E-03 8.64364065E-08-2.81556692E-07 6.81778134E-03
 8  9-6.58442583E-03-2.33355504E-04-1.50647240E-07 8.73486054E-03 1.73056437E-07
 8 10-8.11113692E-02-1.33232174E-01-3.60046067E-02 2.28673456E-04 4.60223200E-03
 8 11 3.14698668E-03 4.23220622E-03 1.00648890E-02 5.91167527E-03 1.57762048E-03
 8 12-1.34706785E-03-2.30552622E-04-2.69511092E-04-1.49195925E-04-1.51030649E-03
 8 13-8.11170518E-02-1.33241709E-01-3.60071251E-02 2.28502732E-04-4.60246063E-03
 8 14 3.14722146E-03 4.23189032E-03-1.00652963E-02 5.91213304E-03 1.57764075E-03
 8 15-1.34707248E-03-2.30568271E-04 2.69457137E-04-1.49139907E-04 1.51038805E-03
 8 16 1.66180271E-01 2.82244684E-01 7.56997926E-02-8.36680419E-03 6.96996049E-08
 8 17-6.98481529E-03-1.55939317E-02 2.82672937E-07-1.39591942E-02 1.22436940E-03
 8 18-1.72997392E-03 5.05604523E-04-4.91424906E-08 2.98596689E-03-2.86248009E-08
 9  1-3.42763526E-03-3.19475024E-02-3.21822412E-01-4.43994997E-02-2.20561978E-01
 9  2-1.33571355E-03 3.66372206E-08-4.88908882E-03-9.46531058E-03 2.94617151E-07
 9  3 5.17506380E-01-1.65390818E-03 5.45161090E-08 1.39141328E-01-8.28705139E-03
 9  4 2.64979275E-07 2.26463191E-01 7.31736377E-04 7.08387334E-03-7.81560972E-03
 9  5-1.48011275E-07 7.77975578E-04-8.18910685E-08-3.47623507E-03 9.52935342E-03
 9  6-6.05311835E-03-2.86026585E-07 8.27992927E-04-1.15094368E-07 2.57302759E-03
 9  7 4.58923112E-08-4.63174947E-03 1.79528381E-08 4.87998344E-03-6.56181829E-03
 9  8 1.33416056E-03 3.10973953E-03-7.95269497E-08 8.84037763E-08 1.21677193E-05
 9  9 7.66449116E-04-7.78616836E-04-1.75878327E-08 2.62533692E-04-1.52517047E-08
 9 10 5.85706821E-02 1.01220311E-01 3.20565728E-02 1.97753758E-03-3.65590934E-03
 9 11 1.19058838E-03 3.16021542E-03-6.59778611E-03 9.24339674E-03 1.56313303E-04
 9 12 1.37867911E-03-1.53499241E-03-1.16579665E-03 8.32454122E-05-1.54622249E-05
 9 13 5.85708094E-02 1.01220844E-01 3.20568611E-02 1.97753697E-03 3.65591629E-03
 9 14 1.19058553E-03 3.16022152E-03 6.59786483E-03 9.24341850E-03 1.56311161E-04
 9 15 1.37868356E-03-1.53499472E-03 1.16580078E-03 8.32433493E-05 1.54541444E-05
 9 16 6.24864944E-02 1.17123894E-01 3.80872239E-02-4.33414437E-03 4.21942025E-09
 9 17 1.09043235E-03-9.41239976E-03 3.22776077E-08 9.87854413E-03 2.09387131E-03
 9 18-4.94814631E-04-1.59905668E-03-1.02137673E-09 2.09770229E-04-3.61423414E-09
10  1 2.08357377E-02 1.90279353E-01 7.54127176E-01 1.29713548E-01 4.89763118E-01
10  2-1.15004642E-02 6.78762311E-07 1.08614767E-01-1.15250124E-01 7.25703812E-06
10  3 7.22550269E-01-4.23858323E-02 2.58915680E-06 1.82301746E-01-5.58619395E-03
10  4-6.54231902E-07 2.98842294E-01 6.67360163E-04 1.03261922E-01-1.03929282E-01
10  5-2.58062236E-06-2.31152226E-02 1.42516718E-06-7.05781687E-03 8.83618582E-02
10  6-8.13040414E-02-1.89355127E-06-3.04763709E-02 1.77712956E-06 1.30721819E-02
10  7 2.10849878E-07 2.95580510E-03 4.65172504E-08-2.76562816E-02-2.38935670E-02
10  8 2.36906529E-02 6.35539460E-03-3.29402570E-07-1.47422226E-06-4.89544042E-04
10  9 6.71727517E-03-6.22773113E-03-2.58670923E-07-2.71927954E-03 8.03137659E-08
10 10-2.89932477E-01-6.47984782E-01-7.86815057E-02-4.97774511E-03 1.40836347E-02
10 11 6.77476096E-03-4.08920669E-02 9.84232509E-02 2.95796415E-02 2.37786396E-03
10 12-9.53762306E-03 7.15975909E-03 6.16632677E-03-3.02498283E-04-3.72894941E-03
10 13-2.89927025E-01-6.47974394E-01-7.86820557E-02-4.97782223E-03-1.40837316E-02
10 14 6.77494934E-03-4.08908928E-02-9.84226462E-02 2.95794287E-02 2.37798985E-03
10 15-9.53764513E-03 7.15965528E-03-6.16634849E-03-3.02387275E-04 3.72908188E-03
10 16-2.03247508E-01-4.79538846E-01-9.25360221E-02 1.22732215E-02 1.41510317E-08
10 17 8.09492334E-03 8.16507878E-02-7.86202613E-07 1.84819297E-02-1.01442891E-02
10 18 4.29714887E-03 5.84714021E-03 6.91215329E-08-4.71655735E-03-1.55241533E-08
11  1-1.59240301E-05 2.82169592E-03 3.12195842E-02 3.23832919E-03 1.08989358E-01
11  2 1.04532954E-01 1.91714275E-06 1.68103848E-02 8.06799266E-01 1.51511411E-05
11  3 8.17308127E-02 1.92719006E-01 3.72246891E-06 1.09418249E-02 2.23809321E-01
11  4 4.26622899E-06 3.96509376E-02 4.66488977E-02-3.48891695E-03-4.31599807E-02
11  5-4.56494256E-07-1.08033278E-01-2.02435535E-06 9.59027836E-02-4.24972426E-02
11  6-5.34055410E-02-1.68775635E-06-4.74965922E-02-1.06930901E-06 8.51708053E-03
11  7 6.29015853E-07 2.00620284E-02-3.63481183E-07-2.95115293E-02 8.91622394E-03
11  8 2.59549370E-03-2.03430866E-02-4.80431954E-07 4.78269670E-07 2.20680149E-03
11  9 1.75003133E-03-3.95683283E-03 2.38987480E-08-1.14011351E-02-1.76925906E-07
11 10 1.15475083E-01 2.43373197E-01-8.54105864E-04 3.53269083E-03-4.94022995E-03
11 11-9.67730013E-04 1.73128551E-02-3.65486063E-02-1.56183669E-02-1.24763614E-03
11 12 3.19899176E-03-1.95135562E-03-6.72274644E-04 1.59046780E-04 1.70531276E-03
11 13 1.15483745E-01 2.43393149E-01-8.53129302E-04 3.53291777E-03 4.94076549E-03
11 14-9.67771131E-04 1.73137977E-02 3.65518496E-02-1.56198434E-02-1.24772370E-03
11 15 3.19923719E-03-1.95151349E-03 6.72481005E-04 1.59002782E-04-1.70553856E-03
11 16-2.79804632E-01-6.68601438E-01-5.21922355E-02 1.96571635E-02-5.67563228E-08
11 17 4.13759106E-03 1.12214555E-01-3.84516428E-07 3.71822345E-02-1.28154701E-02
11 18 5.58123781E-03 7.23423233E-03 7.24558365E-08-8.18175267E-03 1.37176929E-07
12  1-8.47304897E-08-8.77051788E-07-4.21419680E-06-5.15169550E-07-6.50539253E-06
12  2-1.99218892E-06 1.04554645E-01-1.30995566E-06-1.55907473E-05 8.57816521E-01
12  3-6.49119375E-06-3.89666497E-06 2.25944903E-01-9.24057070E-07-3.89522251E-06
12  4 1.89464463E-01-3.06664977E-06-1.14903464E-06-1.05707049E-06 2.20610511E-06
12  5-2.80201918E-02 1.29478619E-07-1.25355569E-02-1.95035699E-06-4.58769666E-07
12  6 2.40912671E-06-6.14457127E-02-1.18207975E-06 4.79086176E-02 2.20169780E-07
12  7 2.38124438E-02-1.19578749E-06-6.55538975E-03 9.41984082E-07-6.67370349E-07
12  8 6.62333201E-07 3.71981592E-07-2.53923561E-02 9.20162491E-03-4.89292418E-08
12  9-1.47362229E-07 1.96291393E-07-4.58885736E-04 4.14965420E-08-2.22249966E-03
12 10-2.63311828E-01-5.85501970E-01-2.05519130E-02-3.24363311E-03 1.32092700E-02
12 11 2.00659010E-03-3.74647835E-02 8.39275840E-02 3.10987529E-02 1.54954217E-03
12 12-7.23032741E-03 5.68078524E-03 4.64348857E-03-3.45399777E-04-4.25768108E-03
12 13 2.63310130E-01 5.85500154E-01 2.05521831E-02 3.24364698E-03 1.32096550E-02
12 14-2.00680033E-03 3.74644623E-02 8.39273883E-02-3.10985475E-02-1.54969573E-03
12 15 7.23057759E-03-5.68088186E-03 4.64363203E-03 3.45278299E-04-4.25790303E-03
12 16 7.04088340E-06 1.75208949E-05 1.78303118E-06-5.06078120E-07 3.31618162E-03
12 17-1.36170238E-07-2.66498622E-06-4.36535444E-03-9.49848866E-07 3.36746698E-07
12 18-1.50242973E-07-1.86503725E-07 1.08449706E-03 1.36846871E-07-5.91448158E-04
13  1-8.90788750E-03-6.50222621E-02-3.20154419E-03-7.19239875E-02 2.74675498E+00
13  2 2.85485712E-02-1.47650643E-06 2.28084540E-02 1.17157738E-01-6.16424952E-06
13  3 4.12360688E-02 9.79271005E-03-5.44142211E-07-2.00823938E-02-1.26786482E-02
13  4 1.30337345E-06 1.16689182E+00 8.97432232E-03-3.18458816E-02 2.28715593E-02
13  5 1.00809658E-06 8.35092208E-03-4.73489239E-07-1.14987023E-02-1.51426192E-01
13  6 1.62924894E-01 3.19175598E-06-3.01001025E-04-2.52503260E-07 3.26340262E-02
13  7-2.77256176E-08-3.97221976E-02-2.31965820E-08 3.05951208E-02-4.20191528E-02
13  8 2.26977997E-02-1.76398784E-03 6.03937168E-08 2.13367944E-07 3.97644631E-04
13  9-9.49269299E-03 9.09504836E-03 2.40354916E-07 4.55530174E-04-4.17129904E-08
13 10 4.30981099E-02 2.14493363E-01-1.39142897E+00 8.76042071E-03-1.67404629E-02
13 11-4.08425434E-03-7.64402158E-02 1.19046118E-01 4.78729247E-02 1.49820688E-03
13 12-3.05970927E-03 1.56150239E-03 3.85329376E-03 1.73018828E-03-3.06474308E-03
13 13 4.30982176E-02 2.14497954E-01-1.39145009E+00 8.76053460E-03 1.67407342E-02
13 14-4.08440046E-03-7.64409677E-02-1.19046702E-01 4.78729515E-02 1.49825626E-03
13 15-3.05974478E-03 1.56148852E-03-3.85334842E-03 1.73025126E-03 3.06485173E-03
13 16 4.50727054E-02 2.86329037E-01-1.76671960E+00-2.37956502E-02 3.86145779E-08
13 17-6.79983686E-03 1.58467625E-01 3.38514977E-07 4.79056238E-02-5.63517150E-03
13 18 4.27913294E-03 1.35603856E-03 1.71649169E-08-5.69165838E-03 1.34408977E-09
14  1-1.41410841E-03-1.13196490E-02-1.27474170E-02-1.73228692E-02 4.87983176E-01
14  2-1.50450192E-01-7.44764405E-06 6.06138960E-03-5.72898468E-01-2.82563326E-05
14  3 2.62577220E-03-2.47220163E-02-1.31846197E-06-6.87608811E-03-2.17549106E-01
14  4-2.53677465E-06 1.97221044E-01-2.86336818E-02 2.83481327E-02 2.85549106E-04
14  5 2.32605662E-06-6.43025543E-02-2.82062146E-06-1.04083072E-01 9.60952077E-02
14  6 7.98786416E-03 8.50912609E-06-2.26940900E-01-7.26600817E-06 9.38336544E-03
14  7 1.14766901E-07-7.81149991E-03-4.12628546E-08-7.42425396E-03-7.04878629E-03
14  8 1.79044808E-02-5.54031950E-03-1.12713058E-07 5.56656677E-07-4.69034115E-03
14  9 4.46103064E-03 2.29310511E-04 5.05646804E-07-1.28599667E-02-4.79733175E-07
14 10 2.16604783E-02 2.68186212E-01-1.18011629E+00 9.04618439E-03-1.09662732E-02
14 11-6.55889290E-03-5.10577057E-02 6.04126579E-02 4.01912179E-02 1.41520657E-03
14 12-1.87560593E-03 4.60399356E-04 4.25554885E-03 2.39829481E-03-5.04994483E-03
14 13 2.16622997E-02 2.68221820E-01-1.18025372E+00 9.04683175E-03 1.09677930E-02
14 14-6.55975899E-03-5.10606967E-02-6.04185354E-02 4.01950512E-02 1.41546448E-03
14 15-1.87585361E-03 4.60389122E-04-4.25598388E-03 2.39868684E-03 5.05055969E-03
14 16-1.19846051E-02-3.66911018E-01 1.55493268E+00 1.67318026E-02 1.52550488E-07
14 17 1.08226049E-02-5.12194998E-02-1.97865979E-07-5.45534703E-02 5.22909941E-03
14 18-4.99218228E-03-2.36917133E-04 6.36301901E-08 7.74844277E-03-1.85783671E-08
15  1 1.67648122E-07 1.34398563E-06 1.99865962E-06 1.83781905E-06-4.85513088E-05
15  2 6.93726393E-06-1.65327891E-01-5.40198561E-07 2.60098177E-05-6.15675819E-01
15  3 2.46430124E-07 1.04066700E-06-2.67036317E-02 8.05191855E-07 5.51963526E-06
15  4 6.90487056E-02-1.93561655E-05 1.42844974E-06-1.05765931E-06-3.70790448E-07
15  5 5.34597354E-02 3.00739504E-06-6.10650328E-02 5.50799870E-06-2.65096020E-06
15  6-2.85703849E-06 1.94130583E-01 9.93395031E-06-1.31223653E-01-7.90786211E-07
15  7 1.29209836E-03 8.29539907E-07-1.64241560E-04-9.49341216E-08 8.17413517E-07
15  8-1.01801047E-06 2.43537517E-07-1.56929030E-03 9.41665345E-03 2.73490508E-07
15  9-1.24237030E-07-1.49253472E-07 1.22010035E-02 6.03042899E-07-9.92735310E-03
15 10-2.13884756E-02-3.99144989E-01 1.38454348E+00-6.57220084E-03 1.60944753E-02
15 11 8.65668759E-03 3.01995505E-02-6.05802443E-02-3.68206891E-02-3.03394579E-03
15 12 2.66773045E-03 3.66215339E-04-4.39490258E-03-4.24647119E-03 6.69237552E-03
15 13 2.13851291E-02 3.99112920E-01-1.38441159E+00 6.57115458E-03 1.60931606E-02
15 14-8.65604117E-03-3.01929939E-02-6.05718284E-02 3.68159012E-02 3.03378105E-03
15 15-2.66748450E-03-3.66296550E-04-4.39440223E-03 4.24621782E-03 6.69181256E-03
15 16-3.10801687E-08 1.39619594E-05-5.20943064E-05-5.35699646E-07 4.03308891E-03
15 17-4.19918169E-07 2.69369186E-07-4.17518547E-03 1.72262606E-06-1.58865058E-07
15 18 1.79616369E-07-2.07513111E-08 1.61511978E-03-2.92916623E-07-5.84910234E-04
16  1-3.80233055E-03-2.64661907E-02-2.78245819E-02-9.06995003E-03 2.66789973E-01
16  2-4.94341712E-02-4.69648437E-07-3.15127617E-02-1.50784690E-01-1.50237223E-06
16  3-1.23810406E-01-5.93918332E-03-1.26602400E-07-9.49154736E-03 9.70820396E-01
16  4 1.21081516E-05 2.48692942E-01-1.10147789E-01 4.97296658E-02 6.04181235E-02
16  5 1.40274292E-06 4.22326752E-02 8.07837958E-07-5.49713099E-01 1.69058498E-01
16  6 3.80654601E-01 6.56017966E-06 4.90935921E-01 7.68611852E-06-1.19556856E-02
16  7-2.06695567E-07-6.99851070E-04-1.12273776E-08 1.55774920E-02-4.68515634E-03
16  8-1.46385433E-02 2.07253918E-02 2.88536594E-07-2.17952673E-07-3.98053286E-02
16  9 1.67782999E-02 2.30270287E-02 4.99469148E-07 1.96823570E-02 3.36462990E-07
16 10 1.47831039E-03 4.46266213E-02 2.65415166E-01 3.93936863E-03 1.89387072E-03
16 11 3.19481637E-03 4.84426816E-02 2.81182743E-03-1.98978781E-02-4.36633779E-03
16 12 3.72899962E-03 6.37338175E-04 1.71507578E-03 6.91904516E-04 1.60670782E-03
16 13 1.47839855E-03 4.46296486E-02 2.65432430E-01 3.93927032E-03-1.89388447E-03
16 14 3.19492094E-03 4.84428170E-02-2.81097095E-03-1.99000738E-02-4.36627357E-03
16 15 3.72902864E-03 6.37244931E-04-1.71491495E-03 6.91860702E-04-1.60667086E-03
16 16-7.98755447E-03-1.91151316E-01-7.83573272E-01-3.10316374E-03 5.05641002E-08
16 17-3.77854497E-03 2.30821482E-02 1.15202160E-06 1.26362305E-01-7.25260990E-03
16 18 1.64472067E-03 5.60788923E-03 7.73000657E-08 1.54929458E-03 2.57325906E-08
17  1-1.94581319E-03-8.49844681E-03 6.08191978E-02 1.09630174E-02-1.81098386E-04
17  2 1.01087820E-02 1.43890913E-06-1.08552215E-01 4.31439127E-02 6.43096498E-06
17  3-3.54152613E-01 6.39097291E-03 1.51932615E-06-2.21367106E-03-2.74417851E-01
17  4-8.42144194E-05 5.44017727E-01-3.41781107E-03-8.76681248E-02 9.10859359E-02
17  5-1.29006646E-05-3.43917344E-02-9.64670854E-06-8.16351210E-02-5.26606974E-01
17  6 6.08242095E-01-6.93046032E-05-2.78705005E-01-7.76721029E-05-4.92453905E-03
17  7 1.63607791E-06 1.63088542E-02 4.67387557E-07-1.55664923E-02 1.55520863E-02
17  8-6.31413173E-03-8.94512389E-03-2.66241988E-06 1.45460300E-06-2.45627294E-03
17  9-3.37103562E-02 3.61666291E-02-4.93256864E-06-1.36529457E-02-3.79352474E-06
17 10-2.45879681E-02-2.35436739E-01 1.08599847E-02-1.40544292E-03 7.21390647E-04
17 11 2.97327288E-03-5.80766735E-03-5.73687477E-02 4.60278395E-02-2.47709935E-07
17 12-4.96374664E-03 4.96399435E-03-1.74626138E-04-3.60878501E-03 3.13555460E-03
17 13-2.45871346E-02-2.35441448E-01 1.06940751E-02-1.40474508E-03-7.20738266E-04
17 14 2.97206134E-03-5.80134779E-03 5.73594565E-02 4.60517649E-02-8.67709722E-07
17 15-4.96408073E-03 4.96494844E-03 1.73223861E-04-3.60831887E-03-3.13569504E-03
17 16-2.57862556E-02-1.74539832E-01 3.61288633E-01 2.47282809E-03-2.22816908E-07
17 17 5.38642142E-03-5.92234088E-02-1.28253847E-05-1.43957216E-02 1.10137062E-03
17 18-3.10000567E-03 1.99863506E-03-7.44127021E-07 3.78304051E-03-3.69508842E-07
18  1-1.08924440E-07-4.67740912E-09 1.06113471E-05 2.00908395E-06-9.41715275E-06
18  2 1.34629634E-06-7.46448657E-03-1.51059830E-05 6.00720237E-06-4.05056161E-02
18  3-4.83681788E-05 9.99457365E-07-1.17501034E-02 6.77810059E-08-4.24951584E-05
18  4 5.44845459E-01 7.27912244E-05 9.97133051E-07-1.19806427E-05 1.09835096E-05
18  5 9.66381116E-02-5.41285634E-06 7.45400536E-02-2.44841715E-06-7.16408826E-05
18  6 7.40892998E-05 5.29525349E-01-4.35750377E-05 5.78484669E-01-6.72417742E-07
18  7-1.15791427E-02 2.42675278E-06-3.43109455E-03-2.35740832E-06 2.31468502E-06
18  8-8.98422239E-07-1.41254195E-06 1.89661446E-02-8.95443853E-03 2.36791072E-07
18  9-4.62534420E-06 4.38855316E-06 3.70373224E-02-2.13795154E-06 2.90297147E-02
18 10 3.31830691E-03-1.18621150E-02-5.56305620E-01 2.19163655E-03-2.29320123E-03
18 11-4.13640250E-03 2.83636365E-02 3.25518817E-02 8.48507947E-02-2.32460617E-03
18 12-1.28320265E-03 3.60780882E-03 5.11939578E-03 1.72002098E-03 7.33513993E-04
18 13-3.32533582E-03 1.17962385E-02 5.56309042E-01-2.19205899E-03-2.29344356E-03
18 14 4.13719384E-03-2.83666036E-02 3.25684701E-02-8.48392178E-02 2.32467926E-03
18 15 1.28183067E-03-3.60650993E-03 5.11953631E-03-1.72103968E-03 7.32683905E-04
18 16-3.77181573E-06-2.46775537E-05 5.97367387E-05 4.32661220E-07 1.18641679E-03
18 17 8.05845668E-07-8.48498933E-06 9.93869392E-02-4.01398982E-06 2.80456763E-07
18 18-4.59639895E-07 1.79183132E-07 5.48091438E-03 5.39108524E-07 3.04228073E-03
19  1 2.04776264E-02 1.47084481E-01 3.35993673E-01 1.05625691E-02 1.07941299E-01
19  2 5.19152434E-03-7.72687129E-07-2.78967113E-01 2.41129322E-02-3.46819621E-06
19  3-9.98414381E-01 3.13657509E-03-4.64204020E-07-2.34595883E-02-1.25736197E-01
19  4 2.39778370E-05 1.50556183E+00 2.14747248E-02 3.69191476E-02-5.83938724E-02
19  5-4.91696434E-07 8.01931322E-03-5.00731135E-07 4.36931486E-02 1.90500597E-01
19  6-2.34193746E-01-6.02969525E-06 3.55945440E-02 1.25880400E-06-2.96353327E-03
19  7-2.08166206E-07-5.31189230E-04-7.34927194E-08-4.74095740E-03 6.06472811E-03
19  8 5.45362254E-03-2.08873101E-03 3.52778274E-07-8.57984662E-07 5.63964785E-03
19  9 1.25324741E-02-1.81721219E-02-1.86183528E-07 3.43484483E-03-1.87734750E-07
19 10 9.76535670E-03-8.74176305E-02-2.38808777E-01 2.61014529E-03-5.98984107E-03
19 11 6.52028657E-03-2.08097202E-02 6.27111047E-02-7.48076066E-02-1.41159701E-03
19 12 2.22448416E-03-8.12887150E-04-2.72911027E-03-1.99796991E-03 5.23340268E-03