 !#############################################################################
 !                   D_3h RHF GEOMETRY OPTIMIZATION AND HESSIAN TEMPLATE
 ! ---------------------------------------------------------------------------
 ! Replace the symmetry-correct coordinates, should only be two atoms.  
 ! The hydrogen or fluorine should have only one non-zero x,y,z coordinate.
 ! 
 ! Basis set?   gbasis=ccd for 2nd row, 
 !                         cct 3rd/4th,
 !                   SPKrTZP for heavy,
 !                   SPKrTZC beyond 4th
 ! 
 !#############################################################################
 $system kdiag=3 mwords=250 memddi=8000 parall=.t. $end
 $contrl runtyp=energy ispher=1 $end
 $contrl icut=9 itol=20 inttyp=rysquad qmttol=1.0d-05 nosym=1 $end
 $contrl scftyp=mcscf  mult=5 maxit=200 icharg=0 mplevl=2 $end
 $scf    npunch=2 conv=1.0d-06 dirscf=.t. $end
 $force  method=seminum $end
 $trans  dirtrf=.t. $end
 $statpt hssend=.t. $end
 $basis  gbasis=SPKrTZP $end
 !#############################################################################
 !
 !                       TURN ON THIS SECTION IF HEAVY ATOM
 !
 !#############################################################################
 !
 $contrl relwfn=LUT-IOTC $end
 $scf  diis=.t. soscf=.f. ethrsh=10.0 $end
 !
 !#############################################################################
 !
 !       TURN ON THIS SECTION IF GMCPT, CHANGE runtyp=energy, scftyp=mcscf
 !
 !#############################################################################
 $guess  guess=moread norb=159 purify=.t. norder=1 
         iorder(16)=25 iorder(25)=16 $end
 $mcscf  cistep=gmcci fullnr=.t. finci=mos
         acurcy=1.d-6 maxit=100 $end
 $mrmp   mrpt=gmcpt rdvecs=.f. $end
 $gmcpt  nmofzc=12 nmodoc=12 nmoact=5 nelact=6 stsym(1)=A nsolut=100
         reftyp=ormas nspace=1 mstart(1)=25 mine(1)=6 maxe(1)=6
         kstate(1)=1,1,1,1,1,1,1,1,1,1,1,1,1,1,1
         wstate(1)=1,1,1,1,1,1,1,1,1,1,1,1,1,1,1
         iwgt=0 thrwgt=-1.0 krot=.f. kszdoe=.f. knospn=.t.
         thrde=-1.0 edshft=0.02 $end
 $transt $end
 !#############################################################################
 !
 !             TURN OFF THIS SECTION IF temp.inp, change nosym=1, add C1
 !
 !#############################################################################
 -data
 CoF3 5 states gmcpt
 C1
 CO         27.0   0.0000000000  -0.0000000000   0.0000000000
 F           9.0  -0.8542088149   1.4795330676   0.0000000000
 F           9.0  -0.8542088149  -1.4795330676   0.0000000000
 F           9.0   1.7084176297   0.0000000000   0.0000000000
 $end
 Semi-canonical MOs --- generated at Tue Jan 16 23:25:10 2024
 $VEC   
 1  1 9.97404046E-01 1.24378582E-02 4.17306707E-03-7.62209501E-03-9.93483695E-05
 1  2-4.04020883E-04 4.75006442E-06-2.18748219E-05-2.07315065E-11 0.00000000E+00
 1  3 0.00000000E+00 5.61163894E-11 0.00000000E+00 0.00000000E+00-1.07523858E-10
 1  4 0.00000000E+00 0.00000000E+00 1.36213657E-10 0.00000000E+00 0.00000000E+00
 1  5-8.82917942E-11 0.00000000E+00 0.00000000E+00 2.42322386E-10 0.00000000E+00
 1  6 0.00000000E+00-5.43460502E-06-5.43457681E-06 1.08691818E-05 0.00000000E+00
 1  7 0.00000000E+00 0.00000000E+00 1.40101493E-05 1.40101898E-05-2.80203391E-05
 1  8 0.00000000E+00 0.00000000E+00 0.00000000E+00-2.89436822E-05-2.89435994E-05
 1  9 5.78872816E-05 0.00000000E+00 0.00000000E+00 0.00000000E+00-6.30465569E-06
 1 10-6.30499424E-06 1.26096499E-05 0.00000000E+00 0.00000000E+00 0.00000000E+00
 1 11 9.58098546E-06 0.00000000E+00 0.00000000E+00 0.00000000E+00 0.00000000E+00
 1 12-1.28542227E-05 0.00000000E+00-1.76505149E-11 0.00000000E+00 0.00000000E+00
 1 13-4.09464894E-05 0.00000000E+00 0.00000000E+00 0.00000000E+00 0.00000000E+00
 1 14 5.49354957E-05 0.00000000E+00 0.00000000E+00 0.00000000E+00 0.00000000E+00
 1 15-3.17436487E-06-3.17438520E-06-8.46483361E-06 0.00000000E+00 0.00000000E+00
 1 16 0.00000000E+00 0.00000000E+00 0.00000000E+00 0.00000000E+00-1.85857748E-06
 1 17 7.43473071E-06 7.43476643E-06 0.00000000E+00 0.00000000E+00 0.00000000E+00
 1 18-1.65430543E-06-1.89952016E-05 9.63220948E-06 6.03017101E-05-4.47908430E-06
 1 19 7.75798380E-06 0.00000000E+00 8.17886793E-06-1.41661747E-05 0.00000000E+00
 1 20 2.67435768E-05-4.63212383E-05 0.00000000E+00 1.40376874E-06-7.76722564E-06
 1 21 6.36345690E-06 9.17109412E-06 0.00000000E+00 0.00000000E+00-5.25795956E-06
 1 22 2.83770807E-05-2.31191212E-05-3.36351337E-05 0.00000000E+00 0.00000000E+00
 1 23-5.64859994E-06-4.26332253E-06 0.00000000E+00-1.90664054E-06 0.00000000E+00
 1 24 1.19815642E-05 0.00000000E+00-4.40317217E-06 7.62648793E-06 0.00000000E+00
 1 25-1.65429613E-06-1.89951984E-05 9.63221193E-06 6.03017131E-05-4.47908401E-06
 1 26-7.75798379E-06 0.00000000E+00 8.17887137E-06 1.41661796E-05 0.00000000E+00
 1 27 2.67435767E-05 4.63212373E-05 0.00000000E+00 1.40376878E-06-7.76722867E-06
 1 28 6.36345989E-06-9.17109507E-06 0.00000000E+00 0.00000000E+00-5.25796006E-06
 1 29 2.83770817E-05-2.31191217E-05 3.36351334E-05 0.00000000E+00 0.00000000E+00
 1 30-5.64860157E-06 4.26333219E-06 0.00000000E+00 1.90664071E-06 0.00000000E+00
 1 31 1.19815705E-05 0.00000000E+00-4.40317621E-06-7.62650106E-06 0.00000000E+00
 1 32-1.65431317E-06-1.89952856E-05 9.63246557E-06 6.03012445E-05 8.95812638E-06
 1 33 0.00000000E+00 0.00000000E+00-1.63577291E-05 0.00000000E+00 0.00000000E+00
 1 34-5.34870130E-05 0.00000000E+00 0.00000000E+00-1.23528285E-05 5.98938170E-06
 1 35 6.36344681E-06 0.00000000E+00 0.00000000E+00 0.00000000E+00 4.51947101E-05
 1 36-2.20755934E-05-2.31191167E-05 0.00000000E+00 0.00000000E+00 0.00000000E+00
 1 37-1.30329449E-05 0.00000000E+00 0.00000000E+00 0.00000000E+00 0.00000000E+00
 1 38 8.67919256E-06 0.00000000E+00 8.80633792E-06 0.00000000E+00 0.00000000E+00
 2  1-3.22521748E-01 1.04975302E+00 2.98051434E-02-1.51416908E-02-3.08971197E-03
 2  2-3.43504895E-04-1.60881668E-04-3.97047160E-05-1.49124581E-10 0.00000000E+00
 2  3 0.00000000E+00-8.46989557E-11 0.00000000E+00 0.00000000E+00 6.29682760E-11
 2  4-2.33366173E-11 0.00000000E+00-1.42308119E-10 2.98952108E-11 0.00000000E+00
 2  5 2.76650865E-10-2.30297385E-11 0.00000000E+00 1.44703201E-10 0.00000000E+00
 2  6 0.00000000E+00-2.32562073E-04-2.32561944E-04 4.65124016E-04 0.00000000E+00
 2  7 0.00000000E+00 0.00000000E+00 2.02403225E-04 2.02403305E-04-4.04806530E-04
 2  8 0.00000000E+00 0.00000000E+00 0.00000000E+00-1.20466169E-04-1.20466294E-04
 2  9 2.40932463E-04-2.61949141E-11 0.00000000E+00 0.00000000E+00-1.38774321E-05
 2 10-1.38774714E-05 2.77549035E-05 3.91548887E-11 0.00000000E+00 0.00000000E+00
 2 11 3.70707503E-05 0.00000000E+00 0.00000000E+00 0.00000000E+00 0.00000000E+00
 2 12-4.97356238E-05 0.00000000E+00 0.00000000E+00 0.00000000E+00 0.00000000E+00
 2 13-1.64524135E-04 0.00000000E+00 0.00000000E+00 0.00000000E+00 0.00000000E+00
 2 14 2.20732399E-04 0.00000000E+00-1.04822677E-10 0.00000000E+00 0.00000000E+00
 2 15-1.21978534E-05-1.21978936E-05-3.25279453E-05 0.00000000E+00 0.00000000E+00
 2 16 0.00000000E+00 0.00000000E+00 0.00000000E+00 0.00000000E+00-7.14259157E-06
 2 17 2.85695864E-05 2.85696571E-05 0.00000000E+00 0.00000000E+00 0.00000000E+00
 2 18-5.40811047E-06-7.91550155E-05 2.81559767E-05 2.38109823E-04-1.82761749E-05
 2 19 3.16552771E-05 0.00000000E+00 2.37317467E-05-4.11045188E-05 0.00000000E+00
 2 20 1.05944503E-04-1.83501308E-04 0.00000000E+00 6.20417050E-06-3.26587589E-05
 2 21 2.64545884E-05 3.88628565E-05 0.00000000E+00 0.00000000E+00-2.15787376E-05
 2 22 1.12920886E-04-9.13421481E-05-1.34499528E-04 0.00000000E+00 0.00000000E+00
 2 23-2.55645757E-05-1.93583155E-05 0.00000000E+00-8.65726608E-06 0.00000000E+00
 2 24 5.42916395E-05 0.00000000E+00-1.99931620E-05 3.46291717E-05 0.00000000E+00
 2 25-5.40810364E-06-7.91549990E-05 2.81559476E-05 2.38109810E-04-1.82761678E-05
 2 26-3.16552701E-05 0.00000000E+00 2.37317446E-05 4.11045217E-05 0.00000000E+00
 2 27 1.05944515E-04 1.83501303E-04 0.00000000E+00 6.20416792E-06-3.26587571E-05
 2 28 2.64545892E-05-3.88628590E-05 0.00000000E+00 0.00000000E+00-2.15787345E-05
 2 29 1.12920886E-04-9.13421512E-05 1.34499531E-04 0.00000000E+00 0.00000000E+00
 2 30-2.55645779E-05 1.93583171E-05 0.00000000E+00 8.65726689E-06 0.00000000E+00
 2 31 5.42916421E-05 0.00000000E+00-1.99931618E-05-3.46291746E-05 0.00000000E+00
 2 32-5.40804715E-06-7.91549384E-05 2.81559260E-05 2.38109585E-04 3.65523191E-05
 2 33 0.00000000E+00 0.00000000E+00-4.74633588E-05 0.00000000E+00 0.00000000E+00
 2 34-2.11888807E-04 0.00000000E+00 0.00000000E+00-5.20900457E-05 2.56355295E-05
 2 35 2.64545162E-05 0.00000000E+00 0.00000000E+00 0.00000000E+00 1.80170444E-04
 2 36-8.88283776E-05-9.13420666E-05 0.00000000E+00 0.00000000E+00 0.00000000E+00
 2 37-5.90940724E-05 0.00000000E+00 0.00000000E+00 0.00000000E+00 0.00000000E+00
 2 38 3.92967474E-05 0.00000000E+00 3.99862704E-05 0.00000000E+00 0.00000000E+00
 3  1-0.00000000E+00-0.00000000E+00-0.00000000E+00-0.00000000E+00-0.00000000E+00
 3  2-0.00000000E+00-0.00000000E+00-0.00000000E+00-0.00000000E+00-0.00000000E+00
 3  3 9.97175809E-01-0.00000000E+00-0.00000000E+00 9.95509935E-04-0.00000000E+00
 3  4-0.00000000E+00 8.93532122E-03-0.00000000E+00-0.00000000E+00-2.07938464E-03
 3  5-0.00000000E+00-0.00000000E+00 7.93811879E-04-0.00000000E+00-0.00000000E+00
 3  6-9.41803191E-05-0.00000000E+00-0.00000000E+00-0.00000000E+00-0.00000000E+00
 3  7-3.05140963E-11-0.00000000E+00-0.00000000E+00-0.00000000E+00-0.00000000E+00
 3  8-0.00000000E+00-0.00000000E+00-0.00000000E+00-0.00000000E+00-0.00000000E+00
 3  9-0.00000000E+00-0.00000000E+00-6.05261599E-11-0.00000000E+00-0.00000000E+00
 3 10-0.00000000E+00-0.00000000E+00-0.00000000E+00-0.00000000E+00-0.00000000E+00
 3 11-0.00000000E+00-0.00000000E+00 4.92518662E-05-0.00000000E+00-3.30391559E-05
 3 12-0.00000000E+00-3.30391567E-05-0.00000000E+00-0.00000000E+00-0.00000000E+00
 3 13-0.00000000E+00-0.00000000E+00-1.83259397E-05-0.00000000E+00 1.22934193E-05
 3 14-0.00000000E+00 1.22934089E-05-0.00000000E+00-0.00000000E+00-0.00000000E+00
 3 15-0.00000000E+00-0.00000000E+00-0.00000000E+00-0.00000000E+00-1.01321850E-06
 3 16-0.00000000E+00-0.00000000E+00-0.00000000E+00-0.00000000E+00-0.00000000E+00
 3 17-0.00000000E+00-0.00000000E+00-0.00000000E+00 1.35937252E-06-0.00000000E+00
 3 18-0.00000000E+00-0.00000000E+00-0.00000000E+00-0.00000000E+00-0.00000000E+00
 3 19-0.00000000E+00 1.41036184E-06-0.00000000E+00-0.00000000E+00-6.24299984E-06
 3 20-0.00000000E+00-0.00000000E+00-1.31821751E-07-0.00000000E+00-0.00000000E+00
 3 21-0.00000000E+00-0.00000000E+00 5.39477914E-07-9.34431188E-07-0.00000000E+00
 3 22-0.00000000E+00-0.00000000E+00-0.00000000E+00-5.05439597E-06 8.75449835E-06
 3 23-0.00000000E+00-0.00000000E+00-1.17634009E-07-0.00000000E+00-7.18938399E-08
 3 24-0.00000000E+00 2.29716424E-07-0.00000000E+00-0.00000000E+00-3.01632224E-07
 3 25-0.00000000E+00-0.00000000E+00-0.00000000E+00-0.00000000E+00-0.00000000E+00
 3 26-0.00000000E+00 1.41036250E-06-0.00000000E+00-0.00000000E+00-6.24299999E-06
 3 27-0.00000000E+00-0.00000000E+00-1.31821770E-07-0.00000000E+00-0.00000000E+00
 3 28-0.00000000E+00-0.00000000E+00 5.39478301E-07 9.34431701E-07-0.00000000E+00
 3 29-0.00000000E+00-0.00000000E+00-0.00000000E+00-5.05439620E-06-8.75449863E-06
 3 30-0.00000000E+00-0.00000000E+00-1.17631410E-07-0.00000000E+00-7.18966379E-08
 3 31-0.00000000E+00 2.29715735E-07-0.00000000E+00-0.00000000E+00 3.01634041E-07
 3 32-0.00000000E+00-0.00000000E+00-0.00000000E+00-0.00000000E+00-0.00000000E+00
 3 33-0.00000000E+00 1.41034909E-06-0.00000000E+00-0.00000000E+00-6.24296580E-06
 3 34-0.00000000E+00-0.00000000E+00-1.31818318E-07-0.00000000E+00-0.00000000E+00
 3 35-0.00000000E+00-0.00000000E+00-1.07897166E-06-0.00000000E+00-0.00000000E+00
 3 36-0.00000000E+00-0.00000000E+00-0.00000000E+00 1.01087967E-05-0.00000000E+00
 3 37-0.00000000E+00-0.00000000E+00-1.17685661E-07-0.00000000E+00 3.80569013E-07
 3 38-0.00000000E+00-2.22677130E-07-0.00000000E+00-0.00000000E+00-0.00000000E+00
 4  1-6.93612400E-11-4.85282279E-11-5.60593365E-10 3.98230575E-10 6.36131889E-10
 4  2-4.12143328E-10 1.18761256E-10 0.00000000E+00 9.97228197E-01 1.47892155E-03
 4  3 0.00000000E+00 7.83802798E-04 1.16240472E-06 0.00000000E+00 9.25945061E-03
 4  4 1.37320640E-05 0.00000000E+00-2.38704105E-03-3.54006007E-06 0.00000000E+00
 4  5 9.55437207E-04 1.41694614E-06 0.00000000E+00-1.26516948E-05-1.87614874E-08
 4  6 0.00000000E+00-1.03630422E-04 1.03630319E-04 1.07826918E-10 1.77462660E-07
 4  7 0.00000000E+00 0.00000000E+00 3.20256809E-05-3.20256025E-05-7.38307449E-11
 4  8-5.48421039E-08 0.00000000E+00 0.00000000E+00-9.50520427E-05 9.50520651E-05
 4  9-2.32492135E-11 1.62770668E-07 0.00000000E+00 0.00000000E+00 1.32318380E-04
 4 10-1.32318388E-04 0.00000000E+00-2.26587564E-07 0.00000000E+00 0.00000000E+00
 4 11-2.81119158E-05-4.16918406E-08 0.00000000E+00-1.86435662E-08 0.00000000E+00
 4 12-1.25720619E-05 0.00000000E+00 5.02881546E-05 7.45790400E-08 0.00000000E+00
 4 13 1.14538572E-05 1.69879664E-08 0.00000000E+00 7.59480747E-09 0.00000000E+00
 4 14 5.12236156E-06 0.00000000E+00-2.04893236E-05-3.03865561E-08 0.00000000E+00
 4 15-5.73796912E-06-3.19644031E-06-1.38069321E-11-8.59127825E-09 0.00000000E+00
 4 16 1.14405074E-08 0.00000000E+00 0.00000000E+00 0.00000000E+00 7.84717104E-06
 4 17 2.23226102E-06-2.23223964E-06 0.00000000E+00 0.00000000E+00-3.82264201E-09
 4 18 8.60771133E-07 9.89077438E-06-1.01733885E-05 6.37356539E-05-2.72037289E-06
 4 19-3.52679596E-06 0.00000000E+00-1.56212435E-05-3.93193728E-06 0.00000000E+00
 4 20 2.56439740E-05-2.28276743E-05 0.00000000E+00-7.30721813E-07 3.10375134E-06
 4 21-2.37302952E-06-2.02617570E-06 0.00000000E+00 0.00000000E+00-1.66291723E-06
 4 22-4.43799550E-06 6.10091273E-06 7.55447489E-06 0.00000000E+00 0.00000000E+00
 4 23 6.28061505E-06 5.12603442E-06 0.00000000E+00 1.78079288E-06 0.00000000E+00
 4 24-1.33596142E-05 0.00000000E+00 4.93328486E-06-8.65808974E-06 0.00000000E+00
 4 25 8.65205506E-07 9.94171834E-06-1.02257895E-05 6.40639341E-05-2.70990698E-06
 4 26 3.53082968E-06 0.00000000E+00-1.56096303E-05 3.89903100E-06 0.00000000E+00
 4 27 2.57119158E-05 2.29822850E-05 0.00000000E+00-7.29827419E-07 3.11507925E-06
 4 28-2.38525183E-06 2.03971667E-06 0.00000000E+00 0.00000000E+00-1.65918795E-06
 4 29-4.47314759E-06 6.13233554E-06-7.58518809E-06 0.00000000E+00 0.00000000E+00
 4 30 6.31277583E-06-5.15036625E-06 0.00000000E+00-1.79254830E-06 0.00000000E+00
 4 31-1.34285081E-05 0.00000000E+00 4.95903059E-06 8.70248972E-06 0.00000000E+00
 4 32-1.72608657E-06-1.98325941E-05 2.03993216E-05-1.27799649E-04 3.39708333E-06
 4 33-7.04862024E-09 0.00000000E+00-8.83356768E-06-2.65097746E-08 0.00000000E+00
 4 34 6.53506625E-05 1.84684614E-08 0.00000000E+00-7.34837094E-06 2.59006637E-06
 4 35 4.75830457E-06 1.54400094E-09 0.00000000E+00 0.00000000E+00 1.88687337E-05
 4 36-6.63545622E-06-1.22332774E-05 4.09127671E-09 0.00000000E+00 0.00000000E+00
 4 37-2.92930356E-05-4.35345411E-10 0.00000000E+00 6.81057730E-10 0.00000000E+00
 4 38 1.93198273E-05 0.00000000E+00 1.99809040E-05-9.69805698E-11 0.00000000E+00
 5  1 0.00000000E+00 4.89905321E-11 1.09241589E-10-8.90536828E-11-9.61435607E-11
 5  2 6.61040263E-11 0.00000000E+00 0.00000000E+00-1.47892155E-03 9.97228197E-01
 5  3 0.00000000E+00-1.16240453E-06 7.83802782E-04 0.00000000E+00-1.37320651E-05
 5  4 9.25945069E-03 0.00000000E+00 3.54006313E-06-2.38704116E-03 0.00000000E+00
 5  5-1.41695017E-06 9.55437284E-04 0.00000000E+00 1.87587700E-08-1.26516744E-05
 5  6 0.00000000E+00 1.53687922E-07-1.53686328E-07 0.00000000E+00 1.19662116E-04
 5  7 0.00000000E+00 0.00000000E+00-4.74966295E-08 4.74930840E-08 0.00000000E+00
 5  8-3.69800269E-05 0.00000000E+00 0.00000000E+00 1.40968300E-07-1.40963369E-07
 5  9 0.00000000E+00 1.09756663E-04 0.00000000E+00 0.00000000E+00-1.96235516E-07
 5 10 1.96237594E-07 0.00000000E+00-1.52788091E-04 0.00000000E+00 0.00000000E+00
 5 11 4.16886454E-08-2.81119180E-05 0.00000000E+00-1.25720590E-05 0.00000000E+00
 5 12 1.86479021E-08 0.00000000E+00-7.45790891E-08 5.02881548E-05 0.00000000E+00
 5 13-1.69811930E-08 1.14538903E-05 0.00000000E+00 5.12231752E-06 0.00000000E+00
 5 14-7.60449824E-09 0.00000000E+00 3.03871594E-08-2.04893239E-05 0.00000000E+00
 5 15 8.50981523E-09 4.74067624E-09 0.00000000E+00-5.79316293E-06 0.00000000E+00
 5 16 7.71437983E-06 0.00000000E+00 0.00000000E+00 0.00000000E+00-1.16366940E-08
 5 17-3.31181877E-09 3.30912667E-09 0.00000000E+00 0.00000000E+00-2.57758295E-06
 5 18-1.49622678E-06-1.71902285E-05 1.76814632E-05-1.10772546E-04-3.52480683E-06
 5 19 1.36493393E-06 0.00000000E+00-3.89230675E-06-1.10882963E-05 0.00000000E+00
 5 20-2.29430836E-05 5.21604488E-05 0.00000000E+00-2.98747618E-07-3.82558534E-06
 5 21 4.12433296E-06 4.56727614E-06 0.00000000E+00 0.00000000E+00-1.25606435E-06
 5 22 1.18594491E-05-1.06033847E-05-1.03655735E-05 0.00000000E+00 0.00000000E+00
 5 23-1.08522006E-05-8.21073812E-06 0.00000000E+00-3.96632771E-06 0.00000000E+00
 5 24 2.32473867E-05 0.00000000E+00-8.68763183E-06 1.49821889E-05 0.00000000E+00
 5 25 1.49355613E-06 1.71608220E-05-1.76512197E-05 1.10583001E-04 3.53286064E-06
 5 26 1.35446842E-06 0.00000000E+00 3.93861951E-06-1.10999163E-05 0.00000000E+00
 5 27 2.28669133E-05 5.20924985E-05 0.00000000E+00 3.00914088E-07 3.81636473E-06
 5 28-4.11727882E-06 4.56124812E-06 0.00000000E+00 0.00000000E+00 1.26099149E-06
 5 29-1.18462402E-05 1.05852487E-05-1.03431285E-05 0.00000000E+00 0.00000000E+00
 5 30 1.08335263E-05-8.19549916E-06 0.00000000E+00-3.96102882E-06 0.00000000E+00
 5 31-2.32076631E-05 0.00000000E+00 8.67296238E-06 1.49564448E-05 0.00000000E+00
 5 32 2.50423592E-09 2.94138916E-08-3.02575321E-08 1.89533559E-07-5.03828576E-09
 5 33-4.75240320E-06 0.00000000E+00 1.31036900E-08-1.78759459E-05 0.00000000E+00
 5 34-9.69151818E-08 1.24538248E-05 0.00000000E+00 1.08987628E-08-3.84093757E-09
 5 35-7.05782526E-09 1.04312430E-06 0.00000000E+00 0.00000000E+00-2.79859068E-08
 5 36 9.84126602E-09 1.81446407E-08 2.75702708E-06 0.00000000E+00 0.00000000E+00
 5 37 4.34442797E-08-2.93415895E-07 0.00000000E+00 4.59072905E-07 0.00000000E+00
 5 38-2.86532139E-08 0.00000000E+00-2.96334038E-08-6.54141723E-08 0.00000000E+00
 6  1-4.82830102E-10 1.62350514E-09-4.06366194E-09-2.90393588E-09 1.91817717E-08
 6  2-2.14893206E-08-1.92356470E-08 1.21729684E-08 1.50231544E-05 1.10405306E-07
 6  3-0.00000000E+00-5.63805717E-05-4.14338164E-07-0.00000000E+00 1.05484817E-04
 6  4 7.75202990E-07-0.00000000E+00-1.20338300E-04-8.84357980E-07-0.00000000E+00
 6  5-1.25803886E-05-9.24566489E-08-0.00000000E+00 1.49971121E-04 1.10212707E-06
 6  6-0.00000000E+00 1.28358092E-05-1.28351581E-05-6.55583355E-10-1.08919530E-07
 6  7-0.00000000E+00-0.00000000E+00 4.01928061E-05-4.01892837E-05-3.52641410E-09
 6  8-3.41054836E-07-0.00000000E+00-0.00000000E+00-1.53392472E-04 1.53382513E-04
 6  9 9.96229427E-09 1.30162026E-06-0.00000000E+00-0.00000000E+00 1.76077550E-04
 6 10-1.76076528E-04-1.01766730E-09-1.49415702E-06-0.00000000E+00-0.00000000E+00
 6 11 2.97685270E-06 2.18682396E-08-0.00000000E+00 9.77819062E-09-0.00000000E+00
 6 12 1.32899126E-06-0.00000000E+00-5.32285826E-06-3.91175128E-08-0.00000000E+00
 6 13-1.13297980E-05-8.32223193E-08-0.00000000E+00-3.72167233E-08-0.00000000E+00
 6 14-5.05692695E-06-0.00000000E+00 2.02574461E-05 1.48871181E-07-0.00000000E+00
 6 15-1.67184744E-05-5.43418913E-06-1.24590196E-09-9.17153063E-08-0.00000000E+00
 6 16 1.54402647E-07-0.00000000E+00-0.00000000E+00-0.00000000E+00 1.94558056E-05
 6 17 9.91220305E-06-9.90999955E-06-0.00000000E+00-0.00000000E+00-8.41038936E-08
 6 18-4.02035496E-01-3.31111443E-03-4.56557176E-04 1.60544403E-04-1.37255541E-04
 6 19 2.41880448E-04-0.00000000E+00 4.74770679E-05-8.53553211E-05-0.00000000E+00
 6 20-7.18557072E-06 4.82445054E-05-0.00000000E+00-2.87178560E-06 3.97196626E-06
 6 21-1.10018066E-06-3.18535431E-06-0.00000000E+00-0.00000000E+00 4.98721202E-06
 6 22-1.92871107E-05 1.42998987E-05 1.33806089E-05-0.00000000E+00-0.00000000E+00
 6 23 5.52070174E-06 3.72573495E-06-0.00000000E+00 2.86028761E-06-0.00000000E+00
 6 24-1.20563118E-05-0.00000000E+00 4.64951315E-06-7.85888558E-06-0.00000000E+00
 6 25-4.12403602E-01-3.39650485E-03-4.68331292E-04 1.64684298E-04-1.40856710E-04
 6 26-2.48082814E-04-0.00000000E+00 4.87477573E-05 8.75298350E-05-0.00000000E+00
 6 27-7.90175392E-06-4.91824699E-05-0.00000000E+00-2.89887737E-06 4.02743566E-06
 6 28-1.12855828E-06 3.29882946E-06-0.00000000E+00-0.00000000E+00 4.97596887E-06
 6 29-1.96446713E-05 1.46687025E-05-1.38189797E-05-0.00000000E+00-0.00000000E+00
 6 30 5.66468962E-06-3.84560317E-06-0.00000000E+00-2.90380484E-06-0.00000000E+00
 6 31-1.23665197E-05-0.00000000E+00 4.76654105E-06 8.06322290E-06-0.00000000E+00
 6 32 8.14594445E-01 6.70889744E-03 9.25059163E-04-3.25246397E-04-5.63484259E-04
 6 33 1.75204287E-08-0.00000000E+00 1.97874637E-04-1.31932753E-08-0.00000000E+00
 6 34-9.19636880E-05 1.51248238E-07-0.00000000E+00-9.42356070E-06 7.19382241E-06
 6 35 2.22973829E-06 1.54564382E-08-0.00000000E+00-0.00000000E+00 4.71236786E-05
 6 36-1.81469223E-05-2.89767563E-05-4.60252175E-08-0.00000000E+00-0.00000000E+00
 6 37-2.67950633E-05 5.18188825E-09-0.00000000E+00-7.77384923E-09-0.00000000E+00
 6 38 1.74486274E-05-0.00000000E+00 1.85007224E-05 8.21616595E-10-0.00000000E+00
 7  1 0.00000000E+00 4.78271902E-11-1.17266967E-10-7.42797402E-11 5.41743002E-10
 7  2-6.10283800E-10-5.35078843E-10 3.39607799E-10-1.10404099E-07 1.50232732E-05
 7  3 0.00000000E+00 4.14337772E-07-5.63805918E-05 0.00000000E+00-7.75202141E-07
 7  4 1.05484906E-04 0.00000000E+00 8.84359872E-07-1.20338428E-04 0.00000000E+00
 7  5 9.24519935E-08-1.25802446E-05 0.00000000E+00-1.10213076E-06 1.49971162E-04
 7  6 0.00000000E+00-9.43151923E-08 9.43393517E-08-2.41166107E-11-1.48211436E-05
 7  7 0.00000000E+00 0.00000000E+00-2.95312466E-07 2.95411380E-07-9.88703995E-11
 7  8-4.64086121E-05 0.00000000E+00 0.00000000E+00 1.12709888E-06-1.12737471E-06
 7  9 2.75773325E-10 1.77116604E-04 0.00000000E+00 0.00000000E+00-1.29396676E-06
 7 10 1.29399671E-06-3.00276550E-11-2.03316301E-04 0.00000000E+00 0.00000000E+00
 7 11-2.18315997E-08 2.97559359E-06 0.00000000E+00 1.33067786E-06 0.00000000E+00
 7 12-9.82726516E-09 0.00000000E+00 3.91174298E-08-5.32285558E-06 0.00000000E+00
 7 13 8.30664920E-08-1.13242726E-05 0.00000000E+00-5.06432522E-06 0.00000000E+00
 7 14 3.74253679E-08 0.00000000E+00-1.48870762E-07 2.02574312E-05 0.00000000E+00
 7 15 1.22846176E-07 3.99186157E-08-3.62679613E-11-1.24800685E-05 0.00000000E+00
 7 16 2.10101829E-05 0.00000000E+00 0.00000000E+00 0.00000000E+00-1.42989540E-07
 7 17-7.28045263E-08 7.28676961E-08 0.00000000E+00 0.00000000E+00-1.14443494E-05
 7 18 7.08409117E-01 5.83436879E-03 8.04475989E-04-2.82861878E-04 2.46035210E-04
 7 19-4.23791766E-04 0.00000000E+00-8.68077303E-05 1.48583008E-04 0.00000000E+00
 7 20 4.87824250E-05-6.41744408E-05 0.00000000E+00 1.86444824E-06-3.80336428E-06
 7 21 1.93891604E-06 7.74433993E-06 0.00000000E+00 0.00000000E+00 7.28340212E-07
 7 22 2.44704349E-05-2.51987751E-05-2.99253863E-05 0.00000000E+00 0.00000000E+00
 7 23-9.83766628E-06-8.18334686E-06 0.00000000E+00-2.98195987E-06 0.00000000E+00
 7 24 2.11953745E-05 0.00000000E+00-7.99676022E-06 1.39610718E-05 0.00000000E+00
 7 25-7.02420165E-01-5.78504455E-03-7.97674995E-04 2.80471366E-04-2.43990104E-04
 7 26-4.20188845E-04 0.00000000E+00 8.61001137E-05 1.47311678E-04 0.00000000E+00
 7 27-4.86710101E-05-6.34575217E-05 0.00000000E+00-1.82201570E-06 3.74453002E-06
 7 28-1.92251432E-06 7.69661676E-06 0.00000000E+00 0.00000000E+00-8.01602933E-07
 7 29-2.41840920E-05 2.49856949E-05-2.97252191E-05 0.00000000E+00 0.00000000E+00
 7 30 9.75540269E-06-8.12766292E-06 0.00000000E+00-2.93958082E-06 0.00000000E+00
 7 31-2.10157643E-05 0.00000000E+00 7.92751818E-06 1.38439849E-05 0.00000000E+00
 7 32-5.98456778E-03-4.92881602E-05-6.79618946E-06 2.39000903E-06 4.13974003E-06
 7 33 2.38409501E-06 0.00000000E+00-1.45370381E-06-1.79522887E-06 0.00000000E+00
 7 34 6.75295278E-07 2.05810456E-05 0.00000000E+00 6.92116514E-08-5.28368868E-08
 7 35-1.63747646E-08 2.10323604E-06 0.00000000E+00 0.00000000E+00-3.46121275E-07
 7 36 1.33268710E-07 2.12852565E-07-6.26288165E-06 0.00000000E+00 0.00000000E+00
 7 37 1.96847089E-07 7.05078826E-07 0.00000000E+00-1.05767808E-06 0.00000000E+00
 7 38-1.28181329E-07 0.00000000E+00-1.35916754E-07 1.11715570E-07 0.00000000E+00
 8  1-5.46789953E-06 1.81652411E-05-4.49440260E-05-3.22792539E-05 2.15252954E-04
 8  2-2.40641580E-04-2.14707514E-04 1.35214053E-04-1.30155441E-09 4.92606968E-11
 8  3 0.00000000E+00 5.13445458E-09 1.83203360E-10 0.00000000E+00-9.77588310E-09
 8  4-3.52735665E-10 0.00000000E+00 1.18179007E-08 4.01914493E-10 0.00000000E+00
 8  5-2.57896009E-10 4.20398525E-11 0.00000000E+00-1.34817835E-08-4.82127267E-10
 8  6 0.00000000E+00 3.52933044E-06 3.53176761E-06-7.06109805E-06 5.55252808E-11
 8  7 0.00000000E+00 0.00000000E+00 1.96201625E-05 1.96270177E-05-3.92471802E-05
 8  8 1.52919356E-10 0.00000000E+00 0.00000000E+00-5.51267554E-05-5.51534670E-05
 8  9 1.10280222E-04-5.56263189E-10 0.00000000E+00 0.00000000E+00 5.63805546E-06
 8 10 5.66943938E-06-1.13074948E-05 6.50646645E-10 0.00000000E+00 0.00000000E+00
 8 11 1.42830373E-05-1.06828698E-11 0.00000000E+00 0.00000000E+00 0.00000000E+00
 8 12-1.91631406E-05 0.00000000E+00 4.37278680E-10 2.00647028E-11 0.00000000E+00
 8 13-6.17895798E-05 3.75003854E-11 0.00000000E+00 1.77592060E-11 0.00000000E+00
 8 14 8.29010264E-05 0.00000000E+00-1.61075973E-09-6.80712525E-11 0.00000000E+00
 8 15-5.29743712E-06-5.29839914E-06-1.41284600E-05 4.61076967E-11 0.00000000E+00
 8 16-7.79453114E-11 0.00000000E+00 0.00000000E+00 0.00000000E+00-3.10273899E-06
 8 17 1.24083237E-05 1.24100136E-05 0.00000000E+00 0.00000000E+00 4.27146424E-11
 8 18 5.76018569E-01 4.73933327E-03 6.32768159E-04-6.52759255E-05 1.99297854E-04
 8 19-3.45194426E-04 0.00000000E+00-7.28731051E-05 1.26220186E-04 0.00000000E+00
 8 20 8.49757405E-05-1.47185342E-04 0.00000000E+00 3.79709276E-06-7.48176427E-06
 8 21 3.68467151E-06 1.12786263E-05 0.00000000E+00 0.00000000E+00-6.90623594E-06
 8 22 3.72073231E-05-3.03010872E-05-4.41128838E-05 0.00000000E+00 0.00000000E+00
 8 23-9.90357013E-06-6.72587131E-06 0.00000000E+00-3.00813185E-06 0.00000000E+00
 8 24 2.02336518E-05 0.00000000E+00-6.94661822E-06 1.20318351E-05 0.00000000E+00
 8 25 5.76023080E-01 4.73937043E-03 6.32773279E-04-6.52777363E-05 1.99299422E-04
 8 26 3.45197124E-04 0.00000000E+00-7.28736579E-05-1.26221136E-04 0.00000000E+00
 8 27 8.49760479E-05 1.47185742E-04 0.00000000E+00 3.79710370E-06-7.48178755E-06
 8 28 3.68468384E-06-1.12786751E-05 0.00000000E+00 0.00000000E+00-6.90622972E-06
 8 29 3.72074753E-05-3.03012456E-05 4.41130713E-05 0.00000000E+00 0.00000000E+00
 8 30-9.90363239E-06 6.72592350E-06 0.00000000E+00 3.00815062E-06 0.00000000E+00
 8 31 2.02337865E-05 0.00000000E+00-6.94666936E-06-1.20319239E-05 0.00000000E+00
 8 32 5.75911003E-01 4.73844702E-03 6.32646489E-04-6.52326339E-05-3.98521532E-04
 8 33-1.02005241E-11 0.00000000E+00 1.45719958E-04 0.00000000E+00 0.00000000E+00
 8 34-1.69942447E-04-6.78337779E-11 0.00000000E+00-1.31198995E-05 9.43547896E-06
 8 35 3.68442053E-06 0.00000000E+00 0.00000000E+00 0.00000000E+00 5.92579218E-05
 8 36-2.89604301E-05-3.02974917E-05 2.37803606E-11 0.00000000E+00 0.00000000E+00
 8 37-2.15500344E-05 0.00000000E+00 0.00000000E+00 0.00000000E+00 0.00000000E+00
 8 38 1.50215511E-05 0.00000000E+00 1.38908539E-05 0.00000000E+00 0.00000000E+00
 9  1 1.20607083E-01-4.61120029E-01 6.80233741E-01-4.03165712E-03 4.50166771E-01
 9  2-1.43662775E-02 7.60095638E-03-1.99736726E-03-1.07527208E-10-0.00000000E+00
 9  3-0.00000000E+00 8.68024253E-11 1.67520388E-11-0.00000000E+00 6.26424098E-11
 9  4-6.58502641E-11-0.00000000E+00 4.47648094E-10 1.00753494E-10-0.00000000E+00
 9  5-4.51659418E-10-3.77498180E-11-0.00000000E+00-8.32683806E-11-2.14252280E-11
 9  6-0.00000000E+00-1.84515435E-03-1.84515447E-03 3.69030882E-03-1.19501265E-11
 9  7-0.00000000E+00-0.00000000E+00-6.33936640E-04-6.33936820E-04 1.26787346E-03
 9  8 4.25200929E-11-0.00000000E+00-0.00000000E+00-5.52958668E-04-5.52958468E-04
 9  9 1.10591714E-03-1.66470381E-10-0.00000000E+00-0.00000000E+00-3.17129336E-04
 9 10-3.17129142E-04 6.34258478E-04 2.18598335E-10-0.00000000E+00-0.00000000E+00
 9 11-1.04577661E-04-0.00000000E+00-0.00000000E+00-0.00000000E+00-0.00000000E+00
 9 12 1.40305652E-04-0.00000000E+00-0.00000000E+00-0.00000000E+00-0.00000000E+00
 9 13-6.00894368E-04-0.00000000E+00-0.00000000E+00-0.00000000E+00-0.00000000E+00
 9 14 8.06184420E-04-0.00000000E+00-2.91613935E-11-0.00000000E+00-0.00000000E+00
 9 15-1.84328410E-06-1.84329706E-06-4.91520248E-06-0.00000000E+00-0.00000000E+00
 9 16-0.00000000E+00-0.00000000E+00-0.00000000E+00-0.00000000E+00-1.07911047E-06
 9 17 4.31706043E-06 4.31708320E-06-0.00000000E+00-0.00000000E+00-0.00000000E+00
 9 18-7.62604920E-04 6.09377645E-04 1.56893827E-03 5.75040726E-04 3.82699763E-04
 9 19-6.62855638E-04-0.00000000E+00 8.75994214E-04-1.51726678E-03-0.00000000E+00
 9 20 5.02474454E-04-8.70311625E-04-0.00000000E+00-2.32173088E-05 1.02661894E-04
 9 21-7.94445853E-05-1.25879263E-04-0.00000000E+00-0.00000000E+00-9.72707868E-05
 9 22 4.90033123E-04-3.92762336E-04-5.87303960E-04-0.00000000E+00-0.00000000E+00
 9 23-3.23245630E-05-2.24728489E-05-0.00000000E+00-1.00501666E-05-0.00000000E+00
 9 24 6.65778097E-05-0.00000000E+00-2.32098576E-05 4.02006572E-05-0.00000000E+00
 9 25-7.62604923E-04 6.09377718E-04 1.56893813E-03 5.75040698E-04 3.82699786E-04
 9 26 6.62855642E-04-0.00000000E+00 8.75994177E-04 1.51726678E-03-0.00000000E+00
 9 27 5.02474516E-04 8.70311596E-04-0.00000000E+00-2.32173178E-05 1.02661895E-04
 9 28-7.94445771E-05 1.25879253E-04-0.00000000E+00-0.00000000E+00-9.72707715E-05
 9 29 4.90033129E-04-3.92762358E-04 5.87303983E-04-0.00000000E+00-0.00000000E+00
 9 30-3.23245676E-05 2.24728542E-05-0.00000000E+00 1.00501735E-05-0.00000000E+00
 9 31 6.65778224E-05-0.00000000E+00-2.32098642E-05-4.02006713E-05-0.00000000E+00
 9 32-7.62604913E-04 6.09377719E-04 1.56893824E-03 5.75041191E-04-7.65399897E-04
 9 33-0.00000000E+00-0.00000000E+00-1.75198884E-03-0.00000000E+00-0.00000000E+00