 !#############################################################################
 !                   D_3h RHF GEOMETRY OPTIMIZATION AND HESSIAN TEMPLATE
 ! ---------------------------------------------------------------------------
 ! Replace the symmetry-correct coordinates, should only be two atoms.  
 ! The hydrogen or fluorine should have only one non-zero x,y,z coordinate.
 ! 
 ! Basis set?   gbasis=ccd for 2nd row, 
 !                         cct 3rd/4th,
 !                   SPKrTZP for heavy,
 !                   SPKrTZC beyond 4th
 ! 
 !#############################################################################
 $system kdiag=3 mwords=250 memddi=8000 parall=.t. $end
 $contrl runtyp=energy ispher=1 $end
 $contrl icut=9 itol=20 inttyp=rysquad qmttol=1.0d-05 nosym=1 $end
 $contrl scftyp=mcscf  mult=2 maxit=200 icharg=1 mplevl=2 $end
 $scf    npunch=2 conv=1.0d-06 dirscf=.t. $end
 $force  method=seminum $end
 $trans  dirtrf=.t. $end
 $statpt hssend=.t. $end
 $basis  gbasis=ccd $end
 !#############################################################################
 !
 !                       TURN ON THIS SECTION IF HEAVY ATOM
 !
 !#############################################################################
 !
 -contrl relwfn=LUT-IOTC $end
 -scf  diis=.t. soscf=.f. ethrsh=10.0 $end
 -guess iorder(25)=27,25,26 $end
 -gmcpt nsolut=100 $end
 !
 !#############################################################################
 !
 ! TURN ON THIS SECTION IF GMCPT, CHANGE runtyp=energy, scftyp=mcscf, change nosym=1
 !
 !#############################################################################
 $guess  guess=moread norb=24 purify=.t. norder=1 $end
 $mcscf  cistep=gmcci fullnr=.t. finci=mos
         acurcy=1.d-6 maxit=100 $end
 $mrmp   mrpt=gmcpt rdvecs=.f. $end
 $gmcpt  nmofzc=0 nmodoc=1 nmoact=6 nelact=7 stsym(1)=A
         reftyp=ormas nspace=1 mstart(1)=2 mine(1)=7 maxe(1)=7
         kstate(1)=1,1,1
         wstate(1)=1,1,1
         iwgt=0 thrwgt=-1.0 krot=.f. kszdoe=.f. knospn=.f.
         thrde=-1.0 edshft=0.02 $end
 !#############################################################################
 !
 !             TURN OFF THIS SECTION IF temp.inp, add C1
 !
 !    IF SOC, $transt $end, turn knospn=.t., restart from gmcpt states calc
 !
 !#############################################################################
 -data
 H2O gmcpt 3 states
 C1
 O           8.0   0.0000000000   0.0000000000  -0.0529241093
 H           1.0   0.7493169121  -0.0000000000   0.5549604347
 H           1.0  -0.7493169121   0.0000000000   0.5549604347
 $end
Semi-canonical MOs --- generated at Wed Mar 20 01:01:03 2024
 $VEC   
 1  1 1.00084320E+00-2.99572293E-03-6.17497246E-03-0.00000000E+00-0.00000000E+00
 1  2 5.22949243E-04-0.00000000E+00-0.00000000E+00-4.29433197E-04 7.45555659E-05
 1  3-7.61750047E-05 1.61943880E-06-0.00000000E+00-0.00000000E+00-0.00000000E+00
 1  4-1.78051448E-03 4.93520092E-04 8.09654198E-04-0.00000000E+00 6.24489944E-04
 1  5-1.78051448E-03 4.93520087E-04-8.09654194E-04-0.00000000E+00 6.24489941E-04
 2  1 1.48813569E-02 4.82647583E-01 3.61748731E-01-0.00000000E+00-0.00000000E+00
 2  2 9.39489117E-02-0.00000000E+00-0.00000000E+00-7.37973181E-03 2.29240462E-03
 2  3-4.11487721E-03 1.82247259E-03-0.00000000E+00-0.00000000E+00-0.00000000E+00
 2  4 1.87162473E-01-6.38051673E-03-3.92836945E-02-0.00000000E+00-2.30267744E-02
 2  5 1.87162473E-01-6.38051674E-03 3.92836945E-02-0.00000000E+00-2.30267744E-02
 3  1-0.00000000E+00-0.00000000E+00 1.39297399E-11 5.44219555E-01-0.00000000E+00
 3  2-0.00000000E+00 2.14405982E-01-0.00000000E+00-0.00000000E+00-0.00000000E+00
 3  3-0.00000000E+00-0.00000000E+00-0.00000000E+00 2.51985319E-02-0.00000000E+00
 3  4 3.28254530E-01 1.80504100E-02-2.99342968E-02-0.00000000E+00-3.87801877E-02
 3  5-3.28254530E-01-1.80504101E-02-2.99342968E-02-0.00000000E+00 3.87801877E-02
 4  1-9.21313084E-03-1.78875175E-01-3.21378095E-01 0.00000000E+00 0.00000000E+00
 4  2 5.97478826E-01 0.00000000E+00 0.00000000E+00 2.99804115E-01-8.45202315E-03
 4  3-1.01472144E-02 1.85992375E-02 0.00000000E+00 0.00000000E+00 0.00000000E+00
 4  4 2.18964915E-01 1.82683977E-02-4.23569299E-02 0.00000000E+00 2.42545918E-03
 4  5 2.18964915E-01 1.82683977E-02 4.23569299E-02 0.00000000E+00 2.42545918E-03
 5  1-0.00000000E+00-0.00000000E+00-0.00000000E+00-0.00000000E+00 6.94210168E-01
 5  2-0.00000000E+00-0.00000000E+00 4.26250274E-01-0.00000000E+00-0.00000000E+00
 5  3-0.00000000E+00-0.00000000E+00-0.00000000E+00-0.00000000E+00 1.91649626E-02
 5  4-0.00000000E+00-0.00000000E+00-0.00000000E+00 3.09191994E-02-0.00000000E+00
 5  5-0.00000000E+00-0.00000000E+00-0.00000000E+00 3.09191994E-02-0.00000000E+00
 6  1 1.83347785E-01 5.98726912E-01 2.23838333E-01 3.49442821E-11-0.00000000E+00
 6  2 7.84655173E-01 2.39544939E-11-0.00000000E+00-5.28630124E-02 1.99297575E-02
 6  3 1.32526500E-02-3.31824075E-02-0.00000000E+00-0.00000000E+00-0.00000000E+00
 6  4-6.61972921E-01-3.97115239E-02 1.32232788E-01-0.00000000E+00 1.40208854E-02
 6  5-6.61972921E-01-3.97115239E-02-1.32232788E-01-0.00000000E+00 1.40208854E-02
 7  1 1.92620487E-11 5.94562840E-11-2.21201280E-11-8.85864749E-01-0.00000000E+00
 7  2 2.53985546E-11-3.04788768E-02-0.00000000E+00-0.00000000E+00-0.00000000E+00
 7  3-0.00000000E+00-0.00000000E+00-0.00000000E+00 3.83315269E-02-0.00000000E+00
 7  4 6.70144971E-01 6.41569494E-02-6.85641151E-02-0.00000000E+00-5.56275107E-02
 7  5-6.70144971E-01-6.41569494E-02-6.85641151E-02-0.00000000E+00 5.56275107E-02
 8  1-9.60194241E-02-1.20318362E-01 1.01870922E+00 3.69484265E-11-0.00000000E+00
 8  2-1.97475050E-01 4.08676785E-11-0.00000000E+00 4.25485090E-01 3.94038712E-02
 8  3-6.04382725E-02 2.10344013E-02-0.00000000E+00 1.54684672E-11-0.00000000E+00
 8  4 3.46041042E-01-9.85631920E-01 1.00102653E-01-0.00000000E+00 7.75199582E-02
 8  5 3.46041042E-01-9.85631919E-01-1.00102653E-01-0.00000000E+00 7.75199582E-02
 9  1 2.38506729E-11 3.27839449E-11-2.00978388E-10-5.94030202E-02-0.00000000E+00
 9  2 4.29601012E-11 4.16146186E-01-0.00000000E+00-8.80305258E-11-0.00000000E+00
 9  3 1.39503044E-11-0.00000000E+00-0.00000000E+00 8.13439624E-02-0.00000000E+00
 9  4 4.85722229E-01-1.63810592E+00 4.62312093E-02-0.00000000E+00 7.62973375E-02
 9  5-4.85722229E-01 1.63810592E+00 4.62312093E-02-0.00000000E+00-7.62973375E-02
10  1 7.81276164E-03 1.56935568E-01 5.63590373E-01 8.18043302E-11-0.00000000E+00
10  2-4.89459424E-01-2.84602898E-10-0.00000000E+00 1.07956425E+00-7.05221547E-02
10  3 4.13739304E-02 2.91482243E-02-0.00000000E+00-0.00000000E+00-0.00000000E+00
10  4-7.68378055E-01 6.06787132E-02-1.27650634E-01-0.00000000E+00 2.37378613E-01
10  5-7.68378056E-01 6.06787130E-02 1.27650634E-01-0.00000000E+00 2.37378613E-01
11  1 3.90248371E-11 1.08022745E-10-6.81919889E-11-5.27107633E-01 0.00000000E+00
11  2-1.15209926E-10 1.81052824E+00 0.00000000E+00 1.61308241E-10 0.00000000E+00
11  3 0.00000000E+00 0.00000000E+00 0.00000000E+00-1.98695975E-02 0.00000000E+00
11  4-6.88084146E-01-6.71765428E-01 1.84228061E-01 0.00000000E+00 5.37984813E-02
11  5 6.88084145E-01 6.71765428E-01 1.84228061E-01 0.00000000E+00-5.37984813E-02
12  1-0.00000000E+00-0.00000000E+00-0.00000000E+00-0.00000000E+00-9.23674672E-01
12  2-0.00000000E+00-0.00000000E+00 1.03237499E+00-0.00000000E+00-0.00000000E+00
12  3-0.00000000E+00-0.00000000E+00-0.00000000E+00-0.00000000E+00 1.98339796E-03
12  4-0.00000000E+00-0.00000000E+00-0.00000000E+00 3.79719293E-02-0.00000000E+00
12  5-0.00000000E+00-0.00000000E+00-0.00000000E+00 3.79719293E-02-0.00000000E+00
13  1 2.04186673E-01 5.22789812E-01-3.23559322E-01 1.66857112E-11-0.00000000E+00
13  2-2.94793306E-01-6.93920689E-11-0.00000000E+00 9.64088026E-01 8.59295124E-02
13  3 3.87104737E-02-1.24639986E-01-0.00000000E+00-0.00000000E+00-0.00000000E+00
13  4-3.26072867E-01 1.42832525E-01 4.21240375E-01-0.00000000E+00-4.09151361E-01
13  5-3.26072867E-01 1.42832525E-01-4.21240375E-01-0.00000000E+00-4.09151361E-01
14  1-0.00000000E+00-0.00000000E+00-0.00000000E+00-0.00000000E+00 1.04653916E-11
14  2-0.00000000E+00-0.00000000E+00-4.51538261E-11-0.00000000E+00-0.00000000E+00
14  3-0.00000000E+00-0.00000000E+00-1.51081133E-01-0.00000000E+00-0.00000000E+00
14  4-0.00000000E+00-0.00000000E+00-0.00000000E+00-6.80902010E-01-0.00000000E+00
14  5-0.00000000E+00-0.00000000E+00-0.00000000E+00 6.80902010E-01-0.00000000E+00
15  1-0.00000000E+00-0.00000000E+00-0.00000000E+00-0.00000000E+00 1.67840299E-02
15  2-0.00000000E+00-0.00000000E+00-6.57606256E-01-0.00000000E+00-0.00000000E+00
15  3-0.00000000E+00-0.00000000E+00-0.00000000E+00-0.00000000E+00 1.81639133E-01
15  4-0.00000000E+00-0.00000000E+00-0.00000000E+00 7.52993151E-01-0.00000000E+00
15  5-0.00000000E+00-0.00000000E+00-0.00000000E+00 7.52993151E-01-0.00000000E+00
16  1-7.27677321E-01-1.58222080E+00 2.92339380E+00-2.69591531E-11 0.00000000E+00
16  2 1.00937518E-01-5.66781168E-11 0.00000000E+00 9.50469788E-01-4.00626838E-02
16  3 1.64902491E-01-1.24839807E-01 0.00000000E+00 0.00000000E+00 0.00000000E+00
16  4-8.29448827E-01-3.68124878E-01 2.95759131E-01 0.00000000E+00-7.20526419E-02
16  5-8.29448827E-01-3.68124877E-01-2.95759131E-01 0.00000000E+00-7.20526417E-02
17  1-1.23524824E-10-2.70238119E-10 4.59601838E-10 3.36688454E-03 0.00000000E+00
17  2 0.00000000E+00 9.19876490E-01 0.00000000E+00 1.40951698E-10 0.00000000E+00
17  3 3.11144954E-11-2.25964432E-11 0.00000000E+00-3.41546036E-02 0.00000000E+00
17  4-3.47803321E-01-1.48224231E-01-4.12658322E-01 0.00000000E+00 7.41813960E-01
17  5 3.47803321E-01 1.48224231E-01-4.12658322E-01 0.00000000E+00-7.41813960E-01
18  1-1.67572671E-10-4.55267743E-10-1.61915443E-09 5.54504562E-01 0.00000000E+00
18  2-5.99162462E-10 2.21858501E-01 0.00000000E+00-4.44855507E-10 1.71912994E-10
18  3-2.39487611E-10 6.75746174E-11 0.00000000E+00-9.86673484E-02 0.00000000E+00
18  4-9.41297354E-02-4.63052674E-01 7.96173943E-01 0.00000000E+00 5.25190813E-01
18  5 9.41297364E-02 4.63052674E-01 7.96173945E-01 0.00000000E+00-5.25190815E-01
19  1 1.43112275E-01 3.87232805E-01 1.18005010E+00 7.17980489E-10 0.00000000E+00
19  2 4.55940507E-01 3.16880473E-10 0.00000000E+00 3.32423048E-01-1.27989923E-01
19  3 1.71511641E-01-4.35217187E-02 0.00000000E+00-1.31747594E-10 0.00000000E+00
19  4-3.59157325E-01-2.68095907E-01 7.54023436E-01 0.00000000E+00 6.49709194E-01
19  5-3.59157325E-01-2.68095906E-01-7.54023434E-01 0.00000000E+00 6.49709192E-01
20  1 0.00000000E+00 0.00000000E+00 0.00000000E+00 0.00000000E+00-1.61190823E-02
20  2 0.00000000E+00 0.00000000E+00 3.23926607E-01 0.00000000E+00 0.00000000E+00
20  3 0.00000000E+00 0.00000000E+00-1.56473584E-11 0.00000000E+00 1.04022508E+00
20  4 0.00000000E+00 0.00000000E+00 0.00000000E+00-4.13100180E-01 0.00000000E+00
20  5 0.00000000E+00 0.00000000E+00 0.00000000E+00-4.13100180E-01 0.00000000E+00
21  1 0.00000000E+00 0.00000000E+00 0.00000000E+00 0.00000000E+00 0.00000000E+00
21  2 0.00000000E+00 0.00000000E+00 0.00000000E+00 0.00000000E+00 0.00000000E+00
21  3 0.00000000E+00 0.00000000E+00 1.05849497E+00 0.00000000E+00 1.59031764E-11
21  4 0.00000000E+00 0.00000000E+00 0.00000000E+00-3.75150717E-01 0.00000000E+00
21  5 0.00000000E+00 0.00000000E+00 0.00000000E+00 3.75150717E-01 0.00000000E+00
22  1-6.46177526E-02-1.19008632E-01 3.44780522E-01-0.00000000E+00-0.00000000E+00
22  2-4.28678345E-03-0.00000000E+00-0.00000000E+00 4.52241161E-01-8.06011667E-01
22  3-2.45749658E-01 1.05176132E+00-0.00000000E+00-0.00000000E+00-0.00000000E+00
22  4-2.11486779E-01-1.50677849E-02 3.07314535E-01-0.00000000E+00-3.53572155E-01
22  5-2.11486779E-01-1.50677849E-02-3.07314535E-01-0.00000000E+00-3.53572155E-01
23  1-2.03713985E-01-3.23497962E-01 2.34143097E+00-0.00000000E+00-0.00000000E+00
23  2 3.04811001E-01 3.80433709E-11-0.00000000E+00 1.03379077E+00 8.23246356E-01
23  3-1.12021055E+00 2.96964191E-01-0.00000000E+00 2.48800059E-11-0.00000000E+00
23  4-1.19174912E+00-2.08398166E-01 6.14236514E-01-0.00000000E+00 4.62406692E-01
23  5-1.19174912E+00-2.08398166E-01-6.14236514E-01-0.00000000E+00 4.62406692E-01
24  1-0.00000000E+00 1.51042671E-11-5.55956469E-11 3.86882470E-01-0.00000000E+00
24  2-0.00000000E+00 1.15200501E+00-0.00000000E+00-2.13607038E-11-1.82197595E-11
24  3 1.88370348E-11-0.00000000E+00-0.00000000E+00 1.33297678E+00-0.00000000E+00
24  4-1.02908864E+00-3.07613688E-01 5.93187949E-01-0.00000000E+00 5.17400342E-01
24  5 1.02908864E+00 3.07613688E-01 5.93187949E-01-0.00000000E+00-5.17400342E-01
 $END 
 $DMO    
 1  1 1.48813569E-02 4.82647583E-01 3.61748731E-01-0.00000000E+00-0.00000000E+00
 1  2 9.39489117E-02-0.00000000E+00-0.00000000E+00-7.37973181E-03 2.29240462E-03
 1  3-4.11487721E-03 1.82247259E-03-0.00000000E+00-0.00000000E+00-0.00000000E+00
 1  4 1.87162473E-01-6.38051673E-03-3.92836945E-02-0.00000000E+00-2.30267744E-02
 1  5 1.87162473E-01-6.38051674E-03 3.92836945E-02-0.00000000E+00-2.30267744E-02
 2  1-0.00000000E+00-0.00000000E+00 1.39297399E-11 5.44219555E-01-0.00000000E+00
 2  2-0.00000000E+00 2.14405982E-01-0.00000000E+00-0.00000000E+00-0.00000000E+00
 2  3-0.00000000E+00-0.00000000E+00-0.00000000E+00 2.51985319E-02-0.00000000E+00
 2  4 3.28254530E-01 1.80504100E-02-2.99342968E-02-0.00000000E+00-3.87801877E-02
 2  5-3.28254530E-01-1.80504101E-02-2.99342968E-02-0.00000000E+00 3.87801877E-02
 3  1-9.21313084E-03-1.78875175E-01-3.21378095E-01 0.00000000E+00 0.00000000E+00
 3  2 5.97478826E-01 0.00000000E+00 0.00000000E+00 2.99804115E-01-8.45202315E-03
 3  3-1.01472144E-02 1.85992375E-02 0.00000000E+00 0.00000000E+00 0.00000000E+00
 3  4 2.18964915E-01 1.82683977E-02-4.23569299E-02 0.00000000E+00 2.42545918E-03
 3  5 2.18964915E-01 1.82683977E-02 4.23569299E-02 0.00000000E+00 2.42545918E-03
 4  1-0.00000000E+00-0.00000000E+00-0.00000000E+00-0.00000000E+00 6.94210168E-01
 4  2-0.00000000E+00-0.00000000E+00 4.26250274E-01-0.00000000E+00-0.00000000E+00
 4  3-0.00000000E+00-0.00000000E+00-0.00000000E+00-0.00000000E+00 1.91649626E-02
 4  4-0.00000000E+00-0.00000000E+00-0.00000000E+00 3.09191994E-02-0.00000000E+00
 4  5-0.00000000E+00-0.00000000E+00-0.00000000E+00 3.09191994E-02-0.00000000E+00
 5  1 1.83347785E-01 5.98726912E-01 2.23838333E-01 3.49442821E-11-0.00000000E+00
 5  2 7.84655173E-01 2.39544939E-11-0.00000000E+00-5.28630124E-02 1.99297575E-02
 5  3 1.32526500E-02-3.31824075E-02-0.00000000E+00-0.00000000E+00-0.00000000E+00
 5  4-6.61972921E-01-3.97115239E-02 1.32232788E-01-0.00000000E+00 1.40208854E-02
 5  5-6.61972921E-01-3.97115239E-02-1.32232788E-01-0.00000000E+00 1.40208854E-02
 6  1 1.92620487E-11 5.94562840E-11-2.21201280E-11-8.85864749E-01-0.00000000E+00
 6  2 2.53985546E-11-3.04788768E-02-0.00000000E+00-0.00000000E+00-0.00000000E+00
 6  3-0.00000000E+00-0.00000000E+00-0.00000000E+00 3.83315269E-02-0.00000000E+00
 6  4 6.70144971E-01 6.41569494E-02-6.85641151E-02-0.00000000E+00-5.56275107E-02
 6  5-6.70144971E-01-6.41569494E-02-6.85641151E-02-0.00000000E+00 5.56275107E-02
 $END
 $REFDET     
  3
 1 17
        1    0.988333
      173    0.073097
      168    0.040923
       68    0.039219
       63    0.038816
        8   -0.033445
       47   -0.031752
       98    0.031516
       95    0.030161
      170    0.029950
       93    0.029892
       65    0.028526
      157    0.026614
       79    0.025563
       36   -0.024719
        3   -0.023537
      241   -0.020759
 2 14
       16   -0.989732
      203   -0.074680
      198   -0.039973
       53   -0.035985
       18    0.035609
       46    0.035418
      200   -0.033213
      128   -0.031580
      125   -0.031077
      123   -0.029313
       23    0.024897
      109   -0.024744
       28    0.020826
       39   -0.020309
 3 15
       31    0.991688
       52    0.047296
      113   -0.045361
      108   -0.043659
      143    0.031198
      140    0.030215
      110   -0.029362
      202   -0.029137
      138    0.028620
       43   -0.027595
        6   -0.025649
      211    0.025481
       33    0.024759
       24    0.021816
       19    0.020654
 1  1 1.00000000E+00 0.00000000E+00 0.00000000E+00
 2  1 0.00000000E+00 1.00000000E+00 0.00000000E+00
 3  1 0.00000000E+00 0.00000000E+00 1.00000000E+00
 $END 
 $data
 H2O 3 state diabatization
 C1
 O           8.0   0.0000000000   0.0000000000  -0.0529241093
 H           1.0   0.7493169121  -0.0000000000   0.5549604347
 H           1.0  -0.7493169121   0.0000000000   0.5549604347
 $END
