 !#############################################################################
 !                   D_3h RHF GEOMETRY OPTIMIZATION AND HESSIAN TEMPLATE
 ! ---------------------------------------------------------------------------
 ! Replace the symmetry-correct coordinates, should only be two atoms.  
 ! The hydrogen or fluorine should have only one non-zero x,y,z coordinate.
 ! 
 ! Basis set?   gbasis=ccd for 2nd row, 
 !                         cct 3rd/4th,
 !                   SPKrTZP for heavy,
 !                   SPKrTZC beyond 4th
 ! 
 !#############################################################################
 $system kdiag=3 mwords=250 memddi=8000 parall=.t. $end
 $contrl runtyp=energy ispher=1 $end
 $contrl icut=9 itol=20 inttyp=rysquad qmttol=1.0d-05 nosym=1 $end
 $contrl scftyp=mcscf  mult=2 maxit=200 icharg=1 mplevl=2 $end
 $scf    npunch=2 conv=1.0d-06 dirscf=.t. $end
 $force  method=seminum $end
 $trans  dirtrf=.t. $end
 $statpt hssend=.t. $end
 $basis  gbasis=ccd $end
 !#############################################################################
 !
 !                       TURN ON THIS SECTION IF HEAVY ATOM
 !
 !#############################################################################
 !
 -contrl relwfn=LUT-IOTC $end
 -scf  diis=.t. soscf=.f. ethrsh=10.0 $end
 -guess iorder(25)=27,25,26 $end
 -gmcpt nsolut=100 $end
 !
 !#############################################################################
 !
 !       TURN ON THIS SECTION IF GMCPT, CHANGE runtyp=energy, scftyp=mcscf
 !
 !#############################################################################
 $guess  guess=moread norb=29 purify=.t. norder=1 $end
 $mcscf  cistep=gmcci fullnr=.t. finci=mos
         acurcy=1.d-6 maxit=100 $end
 $mrmp   mrpt=gmcpt rdvecs=.f. $end
 $gmcpt  nmofzc=0 nmodoc=1 nmoact=7 nelact=7 stsym(1)=A
         reftyp=ormas nspace=1 mstart(1)=2 mine(1)=7 maxe(1)=7
         kstate(1)=1,1,1
         wstate(1)=1,1,1
         iwgt=0 thrwgt=-1.0 krot=.f. kszdoe=.f. knospn=.f.
         thrde=-1.0 edshft=0.02 $end
 !if SOC: transt $end, add knospn=.t. 
 !#############################################################################
 !
 !             TURN OFF THIS SECTION IF temp.inp, change nosym=1, add C1
 !
 !#############################################################################
Semi-canonical MOs --- generated at Fri Mar  8 14:29:57 2024
 $VEC   
 1  1 1.00139318E+00-1.72942452E-03-6.44587147E-03-2.93902267E-11-0.00000000E+00
 1  2 1.17062617E-03 4.36947921E-11-0.00000000E+00-4.16565913E-04 8.27990997E-05
 1  3 8.27991372E-05-1.65598237E-04-0.00000000E+00 5.74932269E-11-0.00000000E+00
 1  4-2.10095427E-03 4.79337018E-04-5.19843436E-04 9.00395178E-04 4.39698053E-04
 1  5-2.10095427E-03 4.79337022E-04-5.19843436E-04-9.00395178E-04 4.39698053E-04
 1  6-2.10095421E-03 4.79336916E-04 1.03968676E-03-0.00000000E+00 4.39698086E-04
 2  1 8.61370676E-03 4.42921217E-01 2.76956187E-01 0.00000000E+00 0.00000000E+00
 2  2 9.01925308E-02-1.11592695E-11 0.00000000E+00-4.37137484E-03-4.56702150E-04
 2  3-4.56702104E-04 9.13404254E-04 0.00000000E+00-8.67214277E-11 0.00000000E+00
 2  4 1.94445388E-01 3.57426827E-03 1.87585033E-02-3.24906810E-02-9.25117298E-03
 2  5 1.94445388E-01 3.57426826E-03 1.87585033E-02 3.24906810E-02-9.25117297E-03
 2  6 1.94445388E-01 3.57426835E-03-3.75170069E-02 0.00000000E+00-9.25117287E-03
 3  1 7.33620806E-11 2.10970213E-10 1.53752303E-10 4.93408287E-01 1.87302115E-02
 3  2-2.48140612E-11 2.10754474E-01 8.00042476E-03 3.86015815E-11 1.07232168E-02
 3  3-1.07232167E-02-9.33749366E-11-4.70035538E-04 2.65417736E-02 1.00754902E-03
 3  4-1.80169514E-01-2.43703664E-02 8.82626227E-03 2.25250686E-02 8.66061019E-03
 3  5-2.05529274E-01-2.78006174E-02 7.06166616E-03-2.39595290E-02 9.87963439E-03
 3  6 3.85698788E-01 5.21709834E-02-3.23128779E-02 8.10954874E-04-1.85402444E-02
 4  1-0.00000000E+00-2.98869535E-11 4.10376125E-11-1.87302115E-02 4.93408287E-01
 4  2-0.00000000E+00-8.00042476E-03 2.10754474E-01 1.20156100E-11-4.07062719E-04
 4  3 4.07062717E-04-0.00000000E+00-1.23821041E-02-1.00754902E-03 2.65417736E-02
 4  4 3.41345681E-01 4.61716252E-02 2.29407388E-02-1.97762286E-02-1.64082247E-02
 4  5-3.26704217E-01-4.41911689E-02-2.35438585E-02-1.80116325E-02 1.57044207E-02
 4  6-1.46414645E-02-1.98045632E-03 1.22662520E-03 2.13629117E-02 7.03803946E-04
 5  1-1.32186854E-02-1.84331073E-01-2.88308706E-01-0.00000000E+00-0.00000000E+00
 5  2 5.93415739E-01 1.91238357E-11-0.00000000E+00 3.81596323E-01-1.23862774E-02
 5  3-1.23862773E-02 2.47725547E-02-0.00000000E+00-6.37617605E-11-0.00000000E+00
 5  4 1.12869958E-01 2.40193468E-02 9.33603510E-03-1.61704871E-02 1.87671423E-02
 5  5 1.12869958E-01 2.40193468E-02 9.33603510E-03 1.61704871E-02 1.87671424E-02
 5  6 1.12869958E-01 2.40193468E-02-1.86720702E-02-0.00000000E+00 1.87671424E-02
 6  1 2.79451530E-01 8.67718928E-01 1.44207414E-01-1.38698816E-09 6.22850793E-11
 6  2 7.05289543E-01 3.80066374E-10-1.55660574E-10-1.06090781E-01 6.15103930E-03
 6  3 6.15103940E-03-1.23020787E-02-0.00000000E+00-2.98504194E-11-0.00000000E+00
 6  4-5.23300579E-01-5.44528635E-02-3.91444318E-02 6.78001448E-02-1.05633035E-02
 6  5-5.23300580E-01-5.44528636E-02-3.91444318E-02-6.78001448E-02-1.05633035E-02
 6  6-5.23300579E-01-5.44528624E-02 7.82888635E-02-0.00000000E+00-1.05633037E-02
 7  1-4.08104984E-11-3.82397093E-10-2.21579340E-09-9.17745567E-01-1.52830867E-01
 7  2-1.00756940E-09-4.62345474E-02-7.69937357E-03-1.77511283E-10 1.51767388E-03
 7  3-1.51767391E-03 3.01033570E-11-2.91834481E-04 3.94408345E-02 6.56802621E-03
 7  4-2.55505182E-01-4.64853834E-02 8.80507998E-03 3.03340143E-02 1.32590699E-03
 7  5-4.62645734E-01-8.41715390E-02-3.52168438E-03-4.36878993E-02 2.40083283E-03
 7  6 7.18150919E-01 1.30656924E-01-6.14631606E-02 3.99834850E-03-3.72674004E-03
 8  1-2.42612332E-11-1.02622717E-10-3.32572231E-10-1.52830867E-01 9.17745568E-01
 8  2-1.76224698E-10-7.69937360E-03 4.62345473E-02-1.91995562E-11 2.52736076E-04
 8  3-2.52736084E-04 0.00000000E+00 1.75245882E-03 6.56802621E-03-3.94408345E-02
 8  4-6.81733265E-01-1.24031271E-01-3.65710389E-02 4.62582564E-02 3.53775587E-03
 8  5 5.62140612E-01 1.02273159E-01 3.74508753E-02 3.39314922E-02-2.91714716E-03
 8  6 1.19592654E-01 2.17581122E-02-1.02353729E-02-2.40099836E-02-6.20608731E-04
 9  1-1.71036989E-01-2.68800697E-01 1.67199854E+00-1.45361467E-10-1.96068464E-11
 9  2-2.53181294E-01 3.17434944E-10 2.68790345E-10 6.00095851E-01 2.27735063E-02
 9  3 2.27735058E-02-4.55470121E-02-2.88969583E-11 2.57599190E-10 3.83389478E-11
 9  4 2.29705480E-01-8.61914394E-01-5.81677672E-02 1.00749528E-01 2.39433556E-02
 9  5 2.29705480E-01-8.61914393E-01-5.81677671E-02-1.00749528E-01 2.39433555E-02
 9  6 2.29705483E-01-8.61914399E-01 1.16335534E-01-2.23650446E-11 2.39433559E-02
10  1-4.84895538E-10-1.04430934E-09 4.10622970E-09 5.31830056E-02-9.51688617E-03
10  2-7.89504881E-10-5.77158403E-01 1.03280188E-01 1.43506371E-09-7.70163032E-02
10  3 7.70163034E-02-1.33206648E-10-1.59138051E-02-9.49337647E-02 1.69880175E-02
10  4 3.65916297E-01-1.25178760E+00 2.62110374E-03 7.18582525E-02 4.54767355E-02
10  5 1.92758606E-01-6.59420843E-01 2.46585594E-02-5.12931772E-02 2.39563863E-02
10  6-5.58674901E-01 1.91120844E+00-9.30124339E-02-8.80245884E-03-6.94331216E-02
11  1-1.05537333E-10-2.05000044E-10 1.05028549E-09 9.51688615E-03 5.31830057E-02
11  2-1.88601460E-10-1.03280188E-01-5.77158403E-01 3.72544923E-10-1.37817594E-02
11  3 1.37817595E-02-3.42570175E-11 8.89307669E-02-1.69880175E-02-9.49337647E-02
11  4-4.33840338E-01 1.48415351E+00 6.40165078E-02-4.64429510E-02-5.39184575E-02
11  5 5.33812977E-01-1.82615661E+00-5.91349212E-02-6.84804069E-02 6.63432370E-02
11  6-9.99726391E-02 3.42003106E-01-1.66442030E-02 4.91905871E-02-1.24247794E-02
12  1-1.67915069E-11 0.00000000E+00 1.87089649E-10 4.44879096E-02-5.44162917E-01
12  2 5.92714136E-11-1.54292824E-01 1.88726406E+00 7.10197677E-11 1.06317969E-03
12  3-1.06317971E-03 1.79199836E-11 1.50163018E-02-2.78107307E-03 3.40172611E-02
12  4-5.79971942E-01-9.26656492E-01-3.52866963E-02 1.31893220E-01 7.48850491E-02
12  5 5.27689086E-01 8.43120988E-01 1.92319795E-02 1.27436059E-01-6.81343703E-02
12  6 5.22828560E-02 8.35355033E-02-1.18873734E-02 8.24500814E-02-6.75067871E-03
13  1 4.59056873E-11 8.11285613E-11 3.16891423E-10-5.44162917E-01-4.44879096E-02
13  2-4.77194365E-10 1.88726406E+00 1.54292824E-01 5.35945922E-10-1.30044988E-02
13  3 1.30044989E-02-8.13295469E-11 1.22765418E-03 3.40172611E-02 2.78107306E-03
13  4 2.74475915E-01 4.38546884E-01 9.59596867E-02-1.66586361E-02-3.54398909E-02
13  5 3.65032478E-01 5.83234620E-01 1.00416848E-01 3.78600395E-02-4.71324095E-02
13  6-6.39508392E-01-1.02178150E+00 1.45402826E-01 6.74068675E-03 8.25723003E-02
14  1 9.31848254E-02 3.63111312E-01 2.03856547E-01 1.77688835E-10 5.20603910E-11
14  2-6.89378676E-01-2.26602628E-10-1.89135116E-10 1.09463314E+00-4.01437509E-02
14  3-4.01437509E-02 8.02875019E-02-0.00000000E+00-3.91856795E-11-0.00000000E+00
14  4-5.31073046E-01 1.08433155E-01 2.51384905E-02-4.35411428E-02 5.56438696E-02
14  5-5.31073046E-01 1.08433154E-01 2.51384905E-02 4.35411428E-02 5.56438696E-02
14  6-5.31073046E-01 1.08433155E-01-5.02769810E-02-1.55680729E-11 5.56438695E-02
15  1-5.55075736E-11-1.14818977E-10 2.45551485E-10 2.35818356E-03-7.63613552E-02
15  2 2.72303768E-11-1.60378645E-02 5.19328981E-01-0.00000000E+00-4.73451317E-03
15  3 4.73451316E-03 1.27478761E-11-1.77027492E-01 6.27137960E-03-2.03076238E-01
15  4-1.25649579E-01-1.62531318E-01-3.05348688E-01 6.84298817E-02-3.38825485E-01
15  5 1.21247485E-01 1.56837084E-01 3.24170819E-01 4.89891247E-02 3.26954841E-01
15  6 4.40209359E-03 5.69423380E-03-7.42512402E-03-4.86470382E-01 1.18706448E-02
16  1 2.18325655E-10 3.36067065E-10-7.81696889E-10-7.63613552E-02-2.35818356E-03
16  2-1.02142725E-10 5.19328981E-01 1.60378645E-02 1.01285022E-10 1.53310305E-01
16  3-1.53310305E-01-1.20896728E-10-5.46694490E-03-2.03076238E-01-6.27137961E-03
16  4 6.74607183E-02 8.72623652E-02-3.14464132E-01-3.12946693E-01 1.81913945E-01
16  5 7.50853681E-02 9.71250675E-02-2.95023375E-01 3.16572814E-01 2.02474505E-01
16  6-1.42546086E-01-1.84387433E-01 2.40436132E-01-1.50231286E-02-3.84388450E-01
17  1-5.44078639E-01-1.15684669E+00 2.34563435E+00-3.70233132E-10 4.03670043E-11
17  2 1.78836873E-01 9.80098121E-10-1.23962617E-10-7.42036515E-02-1.07248117E-01
17  3-1.07248118E-01 2.14496235E-01 0.00000000E+00-4.10626529E-11 3.94697424E-11
17  4-3.41715585E-01-3.26630522E-01 3.56491832E-02-6.17461969E-02 3.18419693E-01
17  5-3.41715585E-01-3.26630522E-01 3.56491832E-02 6.17461969E-02 3.18419693E-01
17  6-3.41715585E-01-3.26630523E-01-7.12983663E-02 1.01022942E-11 3.18419693E-01
18  1 0.00000000E+00 0.00000000E+00 0.00000000E+00 0.00000000E+00-1.01303598E-10
18  2 0.00000000E+00 0.00000000E+00 4.90574093E-10 0.00000000E+00 0.00000000E+00
18  3 0.00000000E+00 0.00000000E+00-2.75205037E-11 0.00000000E+00-2.96508700E-11
18  4-7.08322345E-11-2.29131411E-10-5.42298059E-01-3.13095930E-01 2.60973898E-10
18  5 7.05370304E-11 2.29697087E-10 5.42298059E-01-3.13095930E-01-2.60705615E-10
18  6 0.00000000E+00 0.00000000E+00 0.00000000E+00 6.26191860E-01 0.00000000E+00
19  1-6.64720808E-01-1.35704385E+00 2.70713589E+00 3.28496864E-11 5.16953201E-11
19  2-1.80602419E-02 5.52326651E-10 4.26408073E-10 1.10540232E+00 1.59032452E-01
19  3 1.59032452E-01-3.18064904E-01-2.44705819E-11-6.79599471E-11 0.00000000E+00
19  4-7.58772935E-01-2.34679522E-01-3.25059054E-02 5.63018790E-02-3.83979387E-01
19  5-7.58772935E-01-2.34679521E-01-3.25059052E-02-5.63018793E-02-3.83979387E-01
19  6-7.58772935E-01-2.34679522E-01 6.50118104E-02-2.94717991E-10-3.83979386E-01
20  1 2.92631567E-10 5.98926051E-10-1.11411457E-09-1.78431861E-03 2.46030968E-02
20  2 2.71179478E-11-7.05131931E-02 9.72271946E-01-4.48419376E-10-2.05383014E-03
20  3 2.05383002E-03 1.23948381E-10-3.27002635E-02 1.06026144E-02-1.46194267E-01
20  4-3.20845955E-01-2.21297452E-01-1.24286750E-01-3.23303104E-01 6.31852888E-01
20  5 2.95056969E-01 2.03509985E-01 2.00048237E-01-3.46825222E-01-5.81065757E-01
20  6 2.57889863E-02 1.77874673E-02 1.75099918E-02-6.15946502E-01-5.07871299E-02
21  1 3.04579218E-10 6.57340375E-10-1.39722767E-09 2.46030968E-02 1.78431859E-03
21  2-4.63431273E-11 9.72271946E-01 7.05131931E-02-4.81942079E-10 2.83192588E-02
21  3-2.83192589E-02 1.50287343E-10-2.37155870E-03-1.46194267E-01-1.06026145E-02
21  4 1.55461943E-01 1.07226946E-01-5.34080115E-01-1.86467736E-01-3.06156508E-01
21  5 2.00129777E-01 1.38035743E-01-5.10557997E-01 1.37867251E-01-3.94122398E-01
21  6-3.55591719E-01-2.45262688E-01-2.41436717E-01-4.46709944E-02 7.00278906E-01
22  1-0.00000000E+00-0.00000000E+00-0.00000000E+00-2.12309443E-02 5.68925912E-01
22  2-0.00000000E+00 2.09616292E-03-5.61709071E-02-0.00000000E+00 8.52804361E-03
22  3-8.52804362E-03-0.00000000E+00 2.63879216E-01 6.96240343E-03-1.86571622E-01
22  4 1.11548536E-01-3.81892873E-01-3.62722461E-01 6.46290402E-01 3.12675421E-01
22  5-1.06843215E-01 3.65783936E-01 3.46013327E-01 6.19842090E-01-2.99486202E-01
22  6-4.70532038E-03 1.61089369E-02-3.12594770E-02 1.92830488E-02-1.31892187E-02
23  1 2.79101073E-10 5.27016930E-10-1.16704845E-09 5.68925912E-01 2.12309443E-02
23  2-3.51725161E-11-5.61709072E-02-2.09616291E-03-3.59389906E-10-2.28526105E-01
23  3 2.28526104E-01 3.54560059E-11 9.84733656E-03-1.86571622E-01-6.96240345E-03
23  4-5.89693410E-02 2.01884955E-01 2.10653292E-01-3.30743387E-01-1.65293641E-01
23  5-6.71191950E-02 2.29786452E-01 2.37101604E-01 3.77992401E-01-1.88138037E-01
23  6 1.26088537E-01-4.31671407E-01 8.37660645E-01 7.19596920E-04 3.53431678E-01
24  1 8.16711364E-03 1.45911867E-01 2.28933321E+00 0.00000000E+00 2.65545304E-11
24  2 3.99600026E-01-9.02744253E-11 4.18909706E-11 1.03951631E+00-2.36264150E-01
24  3-2.36264150E-01 4.72528299E-01 2.42445930E-11 6.88735574E-11 9.97597139E-11
24  4-6.91913399E-01-3.15154986E-01-4.18390426E-01 7.24673476E-01-1.21213908E-01
24  5-6.91913398E-01-3.15154986E-01-4.18390426E-01-7.24673476E-01-1.21213908E-01
24  6-6.91913398E-01-3.15154986E-01 8.36780853E-01-3.65161246E-11-1.21213908E-01
25  1-7.41624783E-11-9.32139557E-11-1.67367398E-10-3.82399256E-02 3.34362816E-03
25  2-5.60233271E-11 4.36972584E-01-3.82080722E-02-0.00000000E+00-7.58209109E-01
25  3 7.58209109E-01 1.11888769E-10-7.65524865E-02 7.77025584E-01-6.79416757E-02
25  4 6.45983533E-02 4.89189872E-02-4.58919529E-01-3.10960365E-01 1.91231933E-01
25  5 4.76053972E-02 3.60505755E-02-5.15075914E-01 3.31280911E-01 1.40927310E-01
25  6-1.12203750E-01-8.49695626E-02 6.91995390E-02 5.87931296E-02-3.32159243E-01
26  1 6.05104577E-11 1.68318405E-10 4.04514350E-10-3.34362818E-03-3.82399256E-02
26  2 1.02233037E-10 3.82080721E-02 4.36972584E-01-3.47852197E-11-6.62963978E-02
26  3 6.62963983E-02-4.22596559E-10 8.75504467E-01 6.79416756E-02 7.77025584E-01
26  4-9.22658545E-02-6.98710094E-02-3.63702816E-01-1.44277741E-01-2.73136648E-01
26  5 1.02076742E-01 7.73005902E-02 2.78538461E-01-8.81213550E-02 3.02180037E-01
26  6-9.81088791E-03-7.42958099E-03 6.05067942E-03-6.72396808E-01-2.90433878E-02
27  1 1.02734267E-01 3.35716030E-01 1.78535184E+00-8.67562626E-11 6.04012933E-11
27  2 3.40137009E-01-7.74668486E-11-1.19815580E-10 1.95706043E-01 5.15173095E-01
27  3 5.15173096E-01-1.03034619E+00-4.07412237E-10 4.18869145E-11-2.36772542E-10
27  4-6.27318230E-01-2.21181617E-01-2.36105250E-01 4.08946289E-01 5.99990679E-01
27  5-6.27318230E-01-2.21181617E-01-2.36105250E-01-4.08946289E-01 5.99990678E-01
27  6-6.27318230E-01-2.21181617E-01 4.72210500E-01 2.70238028E-10 5.99990679E-01
28  1-0.00000000E+00-0.00000000E+00-2.87669873E-10-2.02916579E-01 6.68619533E-01
28  2-4.57316482E-11-3.83957044E-01 1.26515626E+00-9.15997539E-11-2.64742798E-01
28  3 2.64742798E-01 6.58205844E-11-1.00729122E+00-3.14874837E-01 1.03752718E+00
28  4-1.39026594E+00-5.20050624E-01-5.21889848E-01 8.72446040E-01 4.60634758E-01
28  5 9.75705917E-01 3.64977992E-01 4.00559575E-01 5.92495677E-01-3.23279199E-01
28  6 4.14560022E-01 1.55072632E-01-3.03109263E-01-6.63937758E-02-1.37355559E-01
29  1-8.38376389E-11-1.98991827E-10 3.27473680E-10-6.68619533E-01-2.02916579E-01
29  2-4.88279566E-11-1.26515626E+00-3.83957044E-01 6.23576744E-11-8.72339789E-01
29  3 8.72339789E-01 3.27306057E-11 3.05698651E-01-1.03752718E+00-3.14874837E-01
29  4-3.23977733E-01-1.21188916E-01-5.99192538E-02 2.38930158E-01 1.07343063E-01
29  5-1.04201675E+00-3.89782593E-01-3.39869617E-01-6.83519266E-01 3.45249870E-01
29  6 1.36599449E+00 5.10971509E-01-9.98759070E-01 2.01495727E-02-4.52592934E-01
 $END 
 $DMO    
 1  1 8.61370676E-03 4.42921217E-01 2.76956187E-01 0.00000000E+00 0.00000000E+00
 1  2 9.01925308E-02-1.11592695E-11 0.00000000E+00-4.37137484E-03-4.56702150E-04
 1  3-4.56702104E-04 9.13404254E-04 0.00000000E+00-8.67214277E-11 0.00000000E+00
 1  4 1.94445388E-01 3.57426827E-03 1.87585033E-02-3.24906810E-02-9.25117298E-03
 1  5 1.94445388E-01 3.57426826E-03 1.87585033E-02 3.24906810E-02-9.25117297E-03
 1  6 1.94445388E-01 3.57426835E-03-3.75170069E-02 0.00000000E+00-9.25117287E-03
 2  1 7.33620806E-11 2.10970213E-10 1.53752303E-10 4.93408287E-01 1.87302115E-02
 2  2-2.48140612E-11 2.10754474E-01 8.00042476E-03 3.86015815E-11 1.07232168E-02
 2  3-1.07232167E-02-9.33749366E-11-4.70035538E-04 2.65417736E-02 1.00754902E-03
 2  4-1.80169514E-01-2.43703664E-02 8.82626227E-03 2.25250686E-02 8.66061019E-03
 2  5-2.05529274E-01-2.78006174E-02 7.06166616E-03-2.39595290E-02 9.87963439E-03
 2  6 3.85698788E-01 5.21709834E-02-3.23128779E-02 8.10954874E-04-1.85402444E-02
 3  1-0.00000000E+00-2.98869535E-11 4.10376125E-11-1.87302115E-02 4.93408287E-01
 3  2-0.00000000E+00-8.00042476E-03 2.10754474E-01 1.20156100E-11-4.07062719E-04
 3  3 4.07062717E-04-0.00000000E+00-1.23821041E-02-1.00754902E-03 2.65417736E-02
 3  4 3.41345681E-01 4.61716252E-02 2.29407388E-02-1.97762286E-02-1.64082247E-02
 3  5-3.26704217E-01-4.41911689E-02-2.35438585E-02-1.80116325E-02 1.57044207E-02
 3  6-1.46414645E-02-1.98045632E-03 1.22662520E-03 2.13629117E-02 7.03803946E-04
 4  1-1.32186854E-02-1.84331073E-01-2.88308706E-01-0.00000000E+00-0.00000000E+00
 4  2 5.93415739E-01 1.91238357E-11-0.00000000E+00 3.81596323E-01-1.23862774E-02
 4  3-1.23862773E-02 2.47725547E-02-0.00000000E+00-6.37617605E-11-0.00000000E+00
 4  4 1.12869958E-01 2.40193468E-02 9.33603510E-03-1.61704871E-02 1.87671423E-02
 4  5 1.12869958E-01 2.40193468E-02 9.33603510E-03 1.61704871E-02 1.87671424E-02
 4  6 1.12869958E-01 2.40193468E-02-1.86720702E-02-0.00000000E+00 1.87671424E-02
 5  1 2.79451530E-01 8.67718928E-01 1.44207414E-01-1.38698816E-09 6.22850793E-11
 5  2 7.05289543E-01 3.80066374E-10-1.55660574E-10-1.06090781E-01 6.15103930E-03
 5  3 6.15103940E-03-1.23020787E-02-0.00000000E+00-2.98504194E-11-0.00000000E+00
 5  4-5.23300579E-01-5.44528635E-02-3.91444318E-02 6.78001448E-02-1.05633035E-02
 5  5-5.23300580E-01-5.44528636E-02-3.91444318E-02-6.78001448E-02-1.05633035E-02
 5  6-5.23300579E-01-5.44528624E-02 7.82888635E-02-0.00000000E+00-1.05633037E-02
 6  1-4.08104984E-11-3.82397093E-10-2.21579340E-09-9.17745567E-01-1.52830867E-01
 6  2-1.00756940E-09-4.62345474E-02-7.69937357E-03-1.77511283E-10 1.51767388E-03
 6  3-1.51767391E-03 3.01033570E-11-2.91834481E-04 3.94408345E-02 6.56802621E-03
 6  4-2.55505182E-01-4.64853834E-02 8.80507998E-03 3.03340143E-02 1.32590699E-03
 6  5-4.62645734E-01-8.41715390E-02-3.52168438E-03-4.36878993E-02 2.40083283E-03
 6  6 7.18150919E-01 1.30656924E-01-6.14631606E-02 3.99834850E-03-3.72674004E-03
 7  1-2.42612332E-11-1.02622717E-10-3.32572231E-10-1.52830867E-01 9.17745568E-01
 7  2-1.76224698E-10-7.69937360E-03 4.62345473E-02-1.91995562E-11 2.52736076E-04
 7  3-2.52736084E-04 0.00000000E+00 1.75245882E-03 6.56802621E-03-3.94408345E-02
 7  4-6.81733265E-01-1.24031271E-01-3.65710389E-02 4.62582564E-02 3.53775587E-03
 7  5 5.62140612E-01 1.02273159E-01 3.74508753E-02 3.39314922E-02-2.91714716E-03
 7  6 1.19592654E-01 2.17581122E-02-1.02353729E-02-2.40099836E-02-6.20608731E-04
 $END
 $REFDET     
  3
 1 27
        1    0.980661
      393    0.070345
      717    0.070345
        8   -0.044847
       17   -0.044847
      402    0.036131
      708    0.036131
      215    0.033581
      227    0.032233
      218    0.032233
      705    0.031986
      390    0.031986
        2    0.029857
      212   -0.027634
       76   -0.026893
       51   -0.026893
      113   -0.025150
      122   -0.025150
      106    0.024781
      143    0.021857
      179    0.021857
      702   -0.021387
      387   -0.021387
      773    0.021221
      424    0.021221
      159    0.020739
      184    0.020739
 2 27
       71    0.950625
       36   -0.255063
      822   -0.069155
      111   -0.039669
      813   -0.039534
      810   -0.032396
      320    0.032083
      332    0.030715
      323    0.030591
      180    0.026814
      317   -0.026574
        6   -0.025319
      177   -0.024617
       74   -0.023678
       38    0.023678
      391   -0.023478
      183    0.023308
      248   -0.022771
      807    0.022641
      113   -0.022529
      122    0.022529
       99    0.022128
      192    0.021846
      421   -0.021098
      751   -0.020756
      878    0.020301
      264   -0.020219
 3 27
       36   -0.950625
       71   -0.255063
      463   -0.069155
      121    0.039669
      472   -0.039534
      460   -0.032396
      285   -0.032083
      288   -0.030715
      297   -0.030591
      145   -0.026814
      282    0.026574
       16    0.025319
      142    0.024617
       73   -0.023678
       39   -0.023678
      716    0.023478
      157   -0.023308
      249   -0.022771
      457    0.022641
      112   -0.022529
      123   -0.022529
       64   -0.022128
      148   -0.021846
      771    0.021098
      356    0.020756
      494   -0.020301
      254   -0.020219
 1  1 1.00000000E+00 0.00000000E+00 0.00000000E+00
 2  1 0.00000000E+00 1.00000000E+00 0.00000000E+00
 3  1 0.00000000E+00 0.00000000E+00 1.00000000E+00
 $END 
 $data
 NH3 diabatization 3 states
 C1
 N           7.0  -0.0000000000   0.0000000000  -0.1152223752
 H           1.0  -0.4653498284   0.8060095461   0.3106481351
 H           1.0  -0.4653498284  -0.8060095461   0.3106481351
 H           1.0   0.9306996568   0.0000000000   0.3106481351
 $END
