 !######################################################################################
 !                                  PNICTOGEN TEMPLATE
 ! -------------------------------------------------------------------------------------
 ! Remember to comment out the initial -data group, and end with $data \n c1
 ! 
 ! Basis set?                                                    gbasis=ccd for 2nd row, 
 !                                                                          cct 3rd/4th,
 !                                                                    SPKrTZC beyond 4th
 !
 ! Trouble converging?                                      $scf diis=.t. soscf=.f. $end
 !  
 ! Heavy transition metal atom?                         add $contrl relwfn=LUT-IOTC $end
 !              
 ! 
 !######################################################################################
 $system kdiag=3 mwords=250 memddi=8000 parall=.t. $end
 $contrl runtyp=energy ispher=1 $end
 $contrl icut=9 itol=20 inttyp=rysquad qmttol=1.0d-05 nosym=1 $end
 $scf    npunch=2 conv=1.0d-06 dirscf=.t.      $end
 $contrl scftyp=mcscf  mult=2 maxit=200 icharg=1 mplevl=2 $end
 $guess  guess=moread norb=81 purify=.t. $end
 $basis  gbasis=cct $end
 $mcscf  cistep=gmcci fullnr=.t. finci=mos
         acurcy=1.d-6 maxit=100 $end
 $trans  dirtrf=.t. $end
 $mrmp   mrpt=gmcpt rdvecs=.f. $end
 $gmcpt  nmofzc=1 nmodoc=4 nmoact=7 nelact=7 stsym(1)=A
         reftyp=ormas nspace=1 mstart(1)=6 mine(1)=7 maxe(1)=7
         kstate(1)=1,1,1,1
         wstate(1)=1,1,1,1
         iwgt=0 thrwgt=-1.0 krot=.f. kszdoe=.f. knospn=.f.
         thrde=-1.0 edshft=0.02 $end
--- Semi-canonical MOs --- generated at Mon Jan 15 01:52:54 2024
 $VEC   
 1  1 1.00013318E+00 1.59831091E-04 1.99691023E-04-9.35828764E-04-1.58035663E-04
 1  2-0.00000000E+00 2.52088723E-11-0.00000000E+00-0.00000000E+00 6.31966753E-11
 1  3-0.00000000E+00-0.00000000E+00-0.00000000E+00-0.00000000E+00-0.00000000E+00
 1  4-8.13512600E-11-0.00000000E+00 1.66600626E-06 1.66597137E-06-3.33197763E-06
 1  5-0.00000000E+00-0.00000000E+00-0.00000000E+00 1.08329488E-05 1.08329781E-05
 1  6-2.16659269E-05-0.00000000E+00-0.00000000E+00-0.00000000E+00 1.13278401E-05
 1  7-0.00000000E+00-0.00000000E+00-0.00000000E+00-0.00000000E+00-1.51978934E-05
 1  8-0.00000000E+00-0.00000000E+00-0.00000000E+00-0.00000000E+00 7.63196587E-08
 1  9 7.63250803E-08-1.52644739E-07-0.00000000E+00-0.00000000E+00-0.00000000E+00
 1 10 5.86282940E-06-2.65328753E-05 3.19387005E-05 1.86724034E-06-3.23414883E-06
 1 11-0.00000000E+00-6.81565778E-06 1.18050483E-05-0.00000000E+00-1.28149594E-06
 1 12 6.82035670E-06-5.53886077E-06-8.10185121E-06-0.00000000E+00-0.00000000E+00
 1 13 5.86283279E-06-2.65327971E-05 3.19385560E-05 1.86725553E-06 3.23415839E-06
 1 14-0.00000000E+00-6.81565049E-06-1.18050264E-05-0.00000000E+00-1.28149439E-06
 1 15 6.82035741E-06-5.53886301E-06 8.10186501E-06-0.00000000E+00-0.00000000E+00
 1 16 5.86281140E-06-2.65328776E-05 3.19386852E-05-3.73451500E-06-0.00000000E+00
 1 17-0.00000000E+00 1.36313015E-05-0.00000000E+00-0.00000000E+00 1.08712964E-05
 1 18-5.33243629E-06-5.53886014E-06-0.00000000E+00-0.00000000E+00-0.00000000E+00
 2  1-4.43303305E-04 9.54226894E-01-3.68357659E-03 6.25305261E-02 2.64153028E-03
 2  2-3.75678401E-11 2.64891888E-11 0.00000000E+00 7.79296698E-11 8.57367939E-11
 2  3 0.00000000E+00-9.64673540E-11-1.89938557E-11 0.00000000E+00 8.03925299E-11
 2  4-3.76694706E-11 0.00000000E+00 5.71767751E-05 5.71767479E-05-1.14353523E-04
 2  5-1.79144896E-11 0.00000000E+00 0.00000000E+00-1.30587937E-04-1.30587843E-04
 2  6 2.61175781E-04-2.32109221E-11 0.00000000E+00 0.00000000E+00 1.00286304E-04
 2  7 0.00000000E+00 0.00000000E+00 0.00000000E+00 0.00000000E+00-1.34548199E-04
 2  8 0.00000000E+00 0.00000000E+00 0.00000000E+00 0.00000000E+00 9.63705355E-05
 2  9 9.63704458E-05-1.92740981E-04 0.00000000E+00 0.00000000E+00 0.00000000E+00
 2 10-1.12449482E-04 2.18228679E-04-5.40676855E-04-1.27142435E-05 2.20216504E-05
 2 11 0.00000000E+00 9.79627477E-05-1.69676487E-04 0.00000000E+00 2.43947597E-06
 2 12 2.52432789E-05-2.76827548E-05-2.28038038E-05 0.00000000E+00 0.00000000E+00
 2 13-1.12449499E-04 2.18228825E-04-5.40676929E-04-1.27142386E-05-2.20216490E-05
 2 14 0.00000000E+00 9.79627768E-05 1.69676546E-04 0.00000000E+00 2.43947227E-06
 2 15 2.52432898E-05-2.76827621E-05 2.28038157E-05 0.00000000E+00 0.00000000E+00
 2 16-1.12449499E-04 2.18228722E-04-5.40676661E-04 2.54285159E-05 0.00000000E+00
 2 17 0.00000000E+00-1.95925745E-04 0.00000000E+00 0.00000000E+00 3.66451918E-05
 2 18-8.96248924E-06-2.76827025E-05 0.00000000E+00 0.00000000E+00 0.00000000E+00
 3  1 2.09099532E-11 1.76773524E-10 6.81235473E-11-1.15318463E-10 1.08908406E-11
 3  2 8.89427429E-01-3.57368699E-01-0.00000000E+00-2.51197367E-03 1.00930188E-03
 3  3-0.00000000E+00 7.30738507E-02-2.93608069E-02-0.00000000E+00 1.12701273E-03
 3  4-4.52829599E-04-0.00000000E+00 2.62486828E-04-2.62486815E-04-1.63667946E-11
 3  5 1.21781931E-04-0.00000000E+00-0.00000000E+00-1.23946129E-03 1.23946124E-03
 3  6 5.06773405E-11-5.75053601E-04-0.00000000E+00-0.00000000E+00-5.58820919E-05
 3  7 2.24532099E-05-0.00000000E+00 1.00413955E-05-0.00000000E+00-2.49912113E-05
 3  8-0.00000000E+00 9.99649050E-05-4.01655377E-05-0.00000000E+00-2.72590598E-04
 3  9 2.72590568E-04 2.74390990E-11-1.26469618E-04-0.00000000E+00-0.00000000E+00
 3 10-5.40074773E-04-2.69858362E-03 2.45429976E-04 6.23152103E-05 1.82676220E-05
 3 11-0.00000000E+00-5.60409798E-04 9.03864296E-04-0.00000000E+00 3.08587432E-05
 3 12 6.97501894E-06-3.78337621E-05-1.43583345E-05-0.00000000E+00-0.00000000E+00
 3 13-9.68314924E-05-4.83836557E-04 4.40038456E-05 8.90328469E-05-4.82278811E-05
 3 14-0.00000000E+00-1.41686275E-04-1.38264423E-04-0.00000000E+00 2.59654640E-05
 3 15-1.91821276E-05-6.78333642E-06 1.61961447E-05-0.00000000E+00-0.00000000E+00
 3 16 6.36906312E-04 3.18242007E-03-2.89433752E-04 1.80873374E-05-3.81182644E-05
 3 17-0.00000000E+00-1.25355787E-03 2.01747662E-05-0.00000000E+00-2.79665676E-05
 3 18-1.66504731E-05 4.46170407E-05 1.15508084E-05-0.00000000E+00-0.00000000E+00
 4  1 0.00000000E+00 4.95334677E-11-2.13529001E-11-2.52480515E-11-1.28192562E-11
 4  2 3.57368699E-01 8.89427429E-01 0.00000000E+00-1.00930186E-03-2.51197366E-03
 4  3 0.00000000E+00 2.93608069E-02 7.30738507E-02 0.00000000E+00 4.52829616E-04
 4  4 1.12701274E-03 0.00000000E+00 1.05466247E-04-1.05466252E-04 0.00000000E+00
 4  5-3.03093675E-04 0.00000000E+00 0.00000000E+00-4.98011031E-04 4.98010993E-04
 4  6 3.66736668E-11 1.43120658E-03 0.00000000E+00 0.00000000E+00-2.24532321E-05
 4  7-5.58820643E-05 0.00000000E+00-2.49912477E-05 0.00000000E+00-1.00413649E-05
 4  8 0.00000000E+00 4.01655369E-05 9.99649044E-05 0.00000000E+00-1.09525905E-04
 4  9 1.09525900E-04 0.00000000E+00 3.14760490E-04 0.00000000E+00 0.00000000E+00
 4 10 4.23623723E-04 2.11671426E-03-1.92510272E-04 6.36532841E-05 5.06417163E-05
 4 11 0.00000000E+00 3.80014543E-04-7.43359512E-04 0.00000000E+00 5.32662784E-06
 4 12-3.50026402E-05 2.96760123E-05-8.42533458E-06 0.00000000E+00 0.00000000E+00
 4 13-6.79530345E-04-3.39539902E-03 3.08803745E-04-2.84218721E-06 2.39240645E-05
 4 14 0.00000000E+00-6.62114163E-04-1.16208300E-03 0.00000000E+00 1.75051290E-05
 4 15 3.00978739E-05-4.76030029E-05 3.85135336E-06 0.00000000E+00 0.00000000E+00
 4 16 2.55906636E-04 1.27868480E-03-1.16293434E-04 7.26742180E-06 9.48696111E-05
 4 17 0.00000000E+00-5.03674985E-04-5.02114192E-05 0.00000000E+00-1.12368635E-05
 4 18-6.69010031E-06 1.79269639E-05-2.87479157E-05 0.00000000E+00 0.00000000E+00
 5  1-0.00000000E+00-0.00000000E+00-0.00000000E+00-0.00000000E+00-0.00000000E+00
 5  2-0.00000000E+00-0.00000000E+00 9.60622670E-01-0.00000000E+00-0.00000000E+00
 5  3 1.73712339E-05-0.00000000E+00-0.00000000E+00 7.68328611E-02-0.00000000E+00
 5  4-0.00000000E+00 1.57603394E-03-0.00000000E+00-0.00000000E+00-0.00000000E+00
 5  5-0.00000000E+00 6.82902065E-11-0.00000000E+00-0.00000000E+00-0.00000000E+00
 5  6-0.00000000E+00-0.00000000E+00-1.74896065E-11-0.00000000E+00-0.00000000E+00
 5  7-0.00000000E+00-7.92178854E-05-0.00000000E+00 5.31410298E-05-0.00000000E+00
 5  8 5.31409163E-05-0.00000000E+00-0.00000000E+00-0.00000000E+00-0.00000000E+00
 5  9-0.00000000E+00-0.00000000E+00-0.00000000E+00 6.18439143E-11-0.00000000E+00
 5 10-0.00000000E+00-0.00000000E+00-0.00000000E+00-0.00000000E+00-0.00000000E+00
 5 11 4.49182383E-05-0.00000000E+00-0.00000000E+00 1.69518078E-04-0.00000000E+00
 5 12-0.00000000E+00-0.00000000E+00-0.00000000E+00-5.60473778E-06 9.70768808E-06
 5 13-0.00000000E+00-0.00000000E+00-0.00000000E+00-0.00000000E+00-0.00000000E+00
 5 14 4.49182381E-05-0.00000000E+00-0.00000000E+00 1.69518078E-04-0.00000000E+00
 5 15-0.00000000E+00-0.00000000E+00-0.00000000E+00-5.60473774E-06-9.70768796E-06
 5 16-0.00000000E+00-0.00000000E+00-0.00000000E+00-0.00000000E+00-0.00000000E+00
 5 17 4.49182354E-05-0.00000000E+00-0.00000000E+00 1.69518044E-04-0.00000000E+00
 5 18-0.00000000E+00-0.00000000E+00-0.00000000E+00 1.12093993E-05-0.00000000E+00
 6  1 1.25068313E-03 4.72018329E-03 5.56302182E-01 6.05454439E-02 2.11176876E-01
 6  2 1.69857914E-11 1.65306775E-10 0.00000000E+00-4.22212038E-11 3.48796696E-10
 6  3 0.00000000E+00 4.34378519E-11-9.35463394E-11 0.00000000E+00-2.43075557E-10
 6  4-4.66858896E-10 0.00000000E+00 1.16083488E-02 1.16083491E-02-2.32166978E-02
 6  5-8.17216726E-11 0.00000000E+00 0.00000000E+00 6.12101798E-03 6.12101801E-03
 6  6-1.22420360E-02 4.59557455E-11 0.00000000E+00 0.00000000E+00 1.17049001E-02
 6  7 1.82427039E-11 0.00000000E+00 0.00000000E+00 0.00000000E+00-1.57037715E-02
 6  8 0.00000000E+00 8.92270038E-11-2.72357317E-11 0.00000000E+00 2.03302241E-03
 6  9 2.03302230E-03-4.06604471E-03 1.67128577E-11 0.00000000E+00 0.00000000E+00
 6 10 7.88136702E-02 1.14363956E-01 5.33184843E-03 3.86717730E-03-6.69814752E-03
 6 11 0.00000000E+00 7.58207493E-03-1.31325390E-02 0.00000000E+00 4.07379103E-05
 6 12 1.89214170E-03-1.93287961E-03-1.85140375E-03 0.00000000E+00 0.00000000E+00
 6 13 7.88136702E-02 1.14363956E-01 5.33184768E-03 3.86717734E-03 6.69814756E-03
 6 14 0.00000000E+00 7.58207497E-03 1.31325391E-02 0.00000000E+00 4.07379099E-05
 6 15 1.89214173E-03-1.93287964E-03 1.85140380E-03 0.00000000E+00 0.00000000E+00
 6 16 7.88136702E-02 1.14363956E-01 5.33184836E-03-7.73435475E-03-1.24030129E-11
 6 17 0.00000000E+00-1.51641499E-02 1.30847557E-11 0.00000000E+00 2.81784360E-03
 6 18-8.84963820E-04-1.93287978E-03 0.00000000E+00 0.00000000E+00 0.00000000E+00
 7  1 0.00000000E+00-1.82623159E-10 4.87527816E-11 1.05227377E-10-5.80779139E-11
 7  2-3.47372359E-02-6.93649369E-03 0.00000000E+00 3.77448773E-01 7.53707371E-02
 7  3 0.00000000E+00 1.16027098E-01 2.31688338E-02 0.00000000E+00 1.06889609E-01
 7  4 2.13442173E-02 0.00000000E+00 4.43054982E-02-4.43054982E-02 5.21630569E-11
 7  5-1.02157848E-02 0.00000000E+00 0.00000000E+00 3.00544522E-02-3.00544522E-02
 7  6-7.50617719E-11-6.92983568E-03 0.00000000E+00 0.00000000E+00 7.88058901E-03
 7  7 1.57363286E-03 0.00000000E+00 7.03750089E-04 0.00000000E+00 3.52430656E-03
 7  8 0.00000000E+00-1.40972262E-02-2.81500011E-03 0.00000000E+00 8.41221598E-03
 7  9-8.41221591E-03-6.86339135E-11-1.93965515E-03 0.00000000E+00 0.00000000E+00
 7 10-5.32649945E-02-8.91748545E-02-1.82584814E-02-5.57401657E-04 4.52006278E-03
 7 11 0.00000000E+00 1.05312716E-03 9.43088109E-03 0.00000000E+00 1.36300956E-03
 7 12-2.13357336E-03 7.70563796E-04 3.56692402E-04 0.00000000E+00 0.00000000E+00
 7 13-1.09591033E-01-1.83474428E-01-3.75662448E-02-3.09269891E-03-8.17644107E-03
 7 14 0.00000000E+00-3.99439525E-03-1.58465840E-02 0.00000000E+00 1.31579417E-03
 7 15-2.90120463E-03 1.58541047E-03-1.72625310E-03 0.00000000E+00 0.00000000E+00
 7 16 1.62856027E-01 2.72649283E-01 5.58247262E-02-1.28205450E-02 3.67442715E-04
 7 17 0.00000000E+00-2.33615609E-02 1.16343116E-03 0.00000000E+00 4.66859174E-03
 7 18-2.31261757E-03-2.35597417E-03-3.24572397E-04 0.00000000E+00 0.00000000E+00
 8  1-5.49685034E-11-3.47301679E-10-4.81269401E-10 2.20090519E-10-2.77664660E-10
 8  2 6.93649381E-03-3.47372359E-02 0.00000000E+00-7.53707368E-02 3.77448773E-01
 8  3 0.00000000E+00-2.31688338E-02 1.16027098E-01 0.00000000E+00-2.13442171E-02
 8  4 1.06889609E-01 0.00000000E+00-8.84712919E-03 8.84712913E-03 5.87071007E-11
 8  5-5.11595826E-02 0.00000000E+00 0.00000000E+00-6.00141365E-03 6.00141350E-03
 8  6 1.48435719E-10-3.47038921E-02 0.00000000E+00 0.00000000E+00-1.57363297E-03
 8  7 7.88058878E-03 0.00000000E+00 3.52430686E-03 0.00000000E+00-7.03749900E-04
 8  8 0.00000000E+00 2.81500007E-03-1.40972262E-02 0.00000000E+00-1.67979064E-03
 8  9 1.67979064E-03 0.00000000E+00-9.71359028E-03 0.00000000E+00 0.00000000E+00
 8 10 1.57297383E-01 2.63343148E-01 5.39193024E-02 6.71268642E-03-1.04230288E-02
 8 11 0.00000000E+00 1.29323957E-02-1.85883467E-02 0.00000000E+00-1.49233152E-04
 8 12 2.42479266E-03-2.27555951E-03-3.63727464E-03 0.00000000E+00 0.00000000E+00
 8 13-1.24777530E-01-2.08899263E-01-4.27719597E-02-5.98381725E-03-7.88773150E-03
 8 14 0.00000000E+00-1.23450694E-02-1.35408239E-02 0.00000000E+00-3.85682922E-04
 8 15-1.41942459E-03 1.80510751E-03-3.22134228E-03 0.00000000E+00 0.00000000E+00
 8 16-3.25198534E-02-5.44438842E-02-1.11473425E-02 2.56006640E-03 1.84011473E-03
 8 17 0.00000000E+00 4.66494566E-03 5.82634156E-03 0.00000000E+00-9.32246212E-04
 8 18 4.61794280E-04 4.70451932E-04-1.62542464E-03 0.00000000E+00 0.00000000E+00
 9  1 0.00000000E+00 0.00000000E+00 0.00000000E+00 0.00000000E+00 0.00000000E+00
 9  2 0.00000000E+00 0.00000000E+00 2.32804389E-03 0.00000000E+00 0.00000000E+00
 9  3 6.06706623E-01 0.00000000E+00 0.00000000E+00 1.63202592E-01 0.00000000E+00
 9  4 0.00000000E+00 3.55947930E-01 0.00000000E+00 0.00000000E+00 0.00000000E+00
 9  5 0.00000000E+00 0.00000000E+00 0.00000000E+00 0.00000000E+00 0.00000000E+00
 9  6 0.00000000E+00 0.00000000E+00 3.36330261E-11 0.00000000E+00 0.00000000E+00
 9  7 0.00000000E+00-1.01553869E-02 0.00000000E+00 6.81244055E-03 0.00000000E+00
 9  8 6.81244066E-03 0.00000000E+00 0.00000000E+00 0.00000000E+00 0.00000000E+00
 9  9 0.00000000E+00 0.00000000E+00 0.00000000E+00-1.15493627E-11 0.00000000E+00
 9 10 0.00000000E+00 0.00000000E+00 0.00000000E+00 0.00000000E+00 0.00000000E+00
 9 11 5.14974231E-03 0.00000000E+00 0.00000000E+00 2.31789425E-02 0.00000000E+00
 9 12 0.00000000E+00 0.00000000E+00 0.00000000E+00 1.36103917E-03-2.35738928E-03
 9 13 0.00000000E+00 0.00000000E+00 0.00000000E+00 0.00000000E+00 0.00000000E+00
 9 14 5.14974231E-03 0.00000000E+00 0.00000000E+00 2.31789425E-02 0.00000000E+00
 9 15 0.00000000E+00 0.00000000E+00 0.00000000E+00 1.36103917E-03 2.35738928E-03
 9 16 0.00000000E+00 0.00000000E+00 0.00000000E+00 0.00000000E+00 0.00000000E+00
 9 17 5.14974224E-03 0.00000000E+00 0.00000000E+00 2.31789425E-02 0.00000000E+00
 9 18 0.00000000E+00 0.00000000E+00 0.00000000E+00-2.72207850E-03 0.00000000E+00
10  1 1.27268761E-03 3.47002223E-02 4.48294752E-01 9.06927230E-02 7.65866091E-01
10  2-1.10880374E-10-5.17271470E-11 0.00000000E+00-6.94526861E-11-1.40431523E-10
10  3 0.00000000E+00 2.12074632E-10-2.35266251E-11 0.00000000E+00-4.96309398E-10
10  4-7.34881024E-10 0.00000000E+00-8.06332609E-02-8.06332609E-02 1.61266522E-01
10  5-2.93137949E-11 0.00000000E+00 0.00000000E+00-1.28943125E-01-1.28943125E-01
10  6 2.57886250E-01 3.78901914E-10 0.00000000E+00 0.00000000E+00-3.84914736E-02
10  7-2.26657494E-11 0.00000000E+00-1.82669714E-11 0.00000000E+00 5.16417309E-02
10  8 0.00000000E+00 0.00000000E+00 4.86762652E-11 0.00000000E+00-1.44718707E-02
10  9-1.44718709E-02 2.89437417E-02 0.00000000E+00 0.00000000E+00 0.00000000E+00
10 10-1.30402166E-01-3.04801842E-01-2.73459184E-01 2.80894150E-04-4.86523005E-04
10 11 0.00000000E+00 1.09157645E-03-1.89066595E-03 0.00000000E+00-6.80767211E-04
10 12 3.19071128E-04 3.61696083E-04-9.99838409E-04 0.00000000E+00 0.00000000E+00
10 13-1.30402166E-01-3.04801843E-01-2.73459185E-01 2.80894185E-04 4.86523049E-04
10 14 0.00000000E+00 1.09157631E-03 1.89066564E-03 0.00000000E+00-6.80767203E-04
10 15 3.19071122E-04 3.61696081E-04 9.99838419E-04 0.00000000E+00 0.00000000E+00
10 16-1.30402166E-01-3.04801842E-01-2.73459185E-01-5.61788450E-04 0.00000000E+00
10 17 0.00000000E+00-2.18315276E-03-2.45547451E-11 0.00000000E+00 8.18990342E-04
10 18-1.18068639E-03 3.61696052E-04 0.00000000E+00 0.00000000E+00 0.00000000E+00
11  1 8.48640917E-11 5.76340260E-10 8.38179266E-10 1.29628044E-10-3.51910841E-09
11  2-1.63047640E-01-2.94005299E-04 0.00000000E+00-8.98873756E-01-1.62083721E-03
11  3 0.00000000E+00-1.59569700E-01-2.87734024E-04 0.00000000E+00-3.31986248E-01
11  4-5.98634248E-04 0.00000000E+00 1.19799693E-01-1.19799693E-01-2.34021534E-10
11  5-2.49439865E-04 0.00000000E+00 0.00000000E+00 1.45364501E-02-1.45364508E-02
11  6 6.70468158E-10-3.02667598E-05 0.00000000E+00 0.00000000E+00 1.53809282E-02
11  7 2.77346791E-05 0.00000000E+00 1.24033301E-05 0.00000000E+00 6.87856023E-03
11  8 0.00000000E+00-2.75142409E-02-4.96133068E-05 0.00000000E+00 1.39038402E-02
11  9-1.39038402E-02 0.00000000E+00-2.89497535E-05 0.00000000E+00 0.00000000E+00
11 10-1.33721299E-01-3.40520925E-01-3.83869141E-02-1.40165004E-02 3.16528023E-03
11 11 0.00000000E+00-6.48040307E-02 3.72299897E-02 0.00000000E+00-5.21225456E-03
11 12 6.68213082E-04 4.54404148E-03 9.10387160E-03 0.00000000E+00 0.00000000E+00
11 13-1.34559196E-01-3.42654627E-01-3.86274474E-02-1.40280308E-02-3.22916389E-03
11 14 0.00000000E+00-6.49389989E-02-3.76197885E-02 0.00000000E+00-5.19801745E-03
11 15 6.25503043E-04 4.57251440E-03-9.12965168E-03 0.00000000E+00 0.00000000E+00
11 16 2.68280495E-01 6.83175553E-01 7.70143645E-02-1.95600166E-02-2.19562383E-05
11 17 0.00000000E+00-1.29693325E-01-7.80135322E-05 0.00000000E+00 1.53074234E-02
11 18-6.19086747E-03-9.11655594E-03 1.55835340E-05 0.00000000E+00 0.00000000E+00
12  1-2.61724646E-11-6.49586584E-11-1.10695918E-10 3.45769750E-11-2.34062407E-10
12  2-2.94005360E-04 1.63047640E-01-0.00000000E+00-1.62083747E-03 8.98873756E-01
12  3-0.00000000E+00-2.87734028E-04 1.59569700E-01-0.00000000E+00-5.98633183E-04
12  4 3.31986248E-01-0.00000000E+00 2.16021226E-04-2.16021256E-04 2.99989826E-11
12  5 1.38332770E-01-0.00000000E+00-0.00000000E+00 2.62119840E-05-2.62120808E-05
12  6 9.68000420E-11 1.67852473E-02-0.00000000E+00-0.00000000E+00 2.77346727E-05
12  7-1.53809284E-02-0.00000000E+00-6.87855996E-03-0.00000000E+00 1.24033687E-05
12  8-0.00000000E+00-4.96133368E-05 2.75142409E-02-0.00000000E+00 2.50712185E-05
12  9-2.50712239E-05-0.00000000E+00 1.60547717E-02-0.00000000E+00-0.00000000E+00
12 10-2.32579604E-01-5.92263330E-01-6.67658308E-02-3.22250681E-03 1.77198648E-02
12 11-0.00000000E+00-3.75418646E-02 1.08153539E-01-0.00000000E+00 3.93837684E-03
12 12-1.18417653E-02 7.90338846E-03 7.16491843E-03-0.00000000E+00-0.00000000E+00
12 13 2.32095844E-01 5.91031437E-01 6.66269595E-02 3.17193727E-03 1.77083345E-02
12 14-0.00000000E+00 3.73079137E-02 1.08018571E-01-0.00000000E+00-3.95714851E-03
12 15 1.18440981E-02-7.88694961E-03 7.13203999E-03-0.00000000E+00-0.00000000E+00
12 16 4.83759900E-04 1.23189311E-03 1.38871586E-04-3.52703684E-05 1.21763486E-02
12 17-0.00000000E+00-2.33861280E-04 4.32642449E-02-0.00000000E+00 2.76021467E-05
12 18-1.11632924E-05-1.64388543E-05-8.64221517E-03-0.00000000E+00-0.00000000E+00
13  1 2.45471358E-02 1.76985519E-01 4.41287239E-01 1.98166857E-02 1.24077202E+00
13  2 2.86538263E-10 4.54214586E-11 0.00000000E+00 4.42227061E-10 1.48606353E-10
13  3 0.00000000E+00-6.00811020E-11 0.00000000E+00 0.00000000E+00 2.73259178E-10
13  4-5.61706321E-11 0.00000000E+00 3.58864459E-02 3.58864458E-02-7.17728916E-02
13  5 0.00000000E+00 0.00000000E+00 0.00000000E+00 1.74588773E-01 1.74588772E-01
13  6-3.49177545E-01 1.00761156E-11 0.00000000E+00 0.00000000E+00 8.74684627E-03
13  7 0.00000000E+00 0.00000000E+00 0.00000000E+00 0.00000000E+00-1.17351256E-02
13  8 0.00000000E+00-8.59371777E-11 0.00000000E+00 0.00000000E+00 1.06716517E-02
13  9 1.06716517E-02-2.13433033E-02 0.00000000E+00 0.00000000E+00 0.00000000E+00
13 10 2.44830366E-02 2.84997520E-01-1.08312387E+00 9.06670135E-03-1.57039875E-02
13 11 0.00000000E+00-3.34566080E-02 5.79485450E-02 0.00000000E+00-2.29927586E-04
13 12-1.01950504E-03 1.24943262E-03 7.89577433E-04 0.00000000E+00 0.00000000E+00
13 13 2.44830366E-02 2.84997520E-01-1.08312387E+00 9.06670135E-03 1.57039875E-02
13 14 0.00000000E+00-3.34566080E-02-5.79485450E-02 0.00000000E+00-2.29927581E-04
13 15-1.01950503E-03 1.24943261E-03-7.89577426E-04 0.00000000E+00 0.00000000E+00
13 16 2.44830367E-02 2.84997519E-01-1.08312387E+00-1.81334027E-02 0.00000000E+00
13 17 0.00000000E+00 6.69132165E-02 0.00000000E+00 0.00000000E+00-1.41429385E-03
13 18 1.64861167E-04 1.24943268E-03 0.00000000E+00 0.00000000E+00 0.00000000E+00
14  1 4.39140359E-11 3.17187105E-10 3.49085724E-10-4.39896683E-11-8.36556870E-10
14  2 1.10088228E-01-1.12759938E-01 0.00000000E+00 4.23653862E-01-4.33935436E-01
14  3 0.00000000E+00 2.27846998E-02-2.33376574E-02 0.00000000E+00 4.28182865E-01
14  4-4.38574353E-01 0.00000000E+00 3.81704078E-02-3.81704078E-02-5.96123700E-11
14  5 4.51450476E-02 0.00000000E+00 0.00000000E+00 1.82444855E-01-1.82444855E-01
14  6-6.62737855E-11 2.15781861E-01 0.00000000E+00 0.00000000E+00 8.07189071E-03
14  7-8.26778583E-03 0.00000000E+00-3.69746622E-03 0.00000000E+00 3.60985926E-03
14  8 0.00000000E+00-1.44394371E-02 1.47898649E-02 0.00000000E+00 8.01656910E-03
14  9-8.01656909E-03-1.10145839E-11 9.48138664E-03 0.00000000E+00 0.00000000E+00
14 10-2.06885772E-02-2.98582375E-01 1.93028379E+00-1.15190821E-02 2.02896670E-02
14 11 0.00000000E+00 5.97121934E-02-1.07081428E-01 0.00000000E+00-1.51326028E-03
14 12 6.50937867E-03-4.99611840E-03-8.72753332E-03 0.00000000E+00 0.00000000E+00
14 13 5.77297617E-03 8.33169397E-02-5.38629705E-01 3.82516560E-03 5.30898267E-03
14 14 0.00000000E+00-2.32705783E-02-2.60648324E-02 0.00000000E+00 1.52542618E-03
14 15-2.91955162E-03 1.39412544E-03-1.69990358E-03 0.00000000E+00 0.00000000E+00
14 16 1.49156011E-02 2.15265436E-01-1.39165408E+00-1.68206114E-02-4.89183411E-04
14 17 0.00000000E+00 8.83832375E-02 5.29205804E-03 0.00000000E+00-7.96613406E-03
14 18 4.36414111E-03 3.60199294E-03 1.02008994E-03 0.00000000E+00 0.00000000E+00
15  1-1.94747028E-11-6.03118260E-11-2.05524329E-11-6.88564277E-11 7.18251404E-10
15  2-1.12759939E-01-1.10088228E-01-0.00000000E+00-4.33935437E-01-4.23653862E-01
15  3-0.00000000E+00-2.33376573E-02-2.27846998E-02-0.00000000E+00-4.38574354E-01
15  4-4.28182866E-01-0.00000000E+00-3.90967582E-02 3.90967582E-02-0.00000000E+00
15  5 4.40753903E-02-0.00000000E+00-0.00000000E+00-1.86872574E-01 1.86872574E-01
15  6-5.39377797E-11 2.10669172E-01-0.00000000E+00-0.00000000E+00-8.26778585E-03
15  7-8.07189074E-03-0.00000000E+00-3.60985920E-03-0.00000000E+00-3.69746633E-03
15  8-0.00000000E+00 1.47898650E-02 1.44394370E-02-0.00000000E+00-8.21112169E-03
15  9 8.21112168E-03 1.13506048E-11 9.25673665E-03-0.00000000E+00-0.00000000E+00
15 10-5.27849695E-03-7.61805004E-02 4.92493853E-01-3.55002282E-03 4.82393648E-03
15 11-0.00000000E+00 2.18452929E-02-2.35043746E-02-0.00000000E+00-1.48957480E-03
15 12 2.76428766E-03-1.27471285E-03-1.49109473E-03-0.00000000E+00-0.00000000E+00
15 13 2.05560819E-02 2.96670171E-01-1.91792172E+00 1.14306615E-02 2.01681842E-02
15 14-0.00000000E+00-5.91713028E-02-1.06487147E-01-0.00000000E+00 1.47711366E-03
15 15-6.44123557E-03 4.96412191E-03-8.68927672E-03-0.00000000E+00-0.00000000E+00
15 16-1.52775850E-02-2.20489672E-01 1.42542787E+00 1.72288276E-02-4.77592805E-04
15 17-0.00000000E+00-9.05281936E-02 5.16666904E-03-0.00000000E+00 8.15946265E-03
15 18-4.47005362E-03-3.68940903E-03 9.95920164E-04-0.00000000E+00-0.00000000E+00
16  1-0.00000000E+00-0.00000000E+00-0.00000000E+00-0.00000000E+00-0.00000000E+00
16  2-0.00000000E+00-0.00000000E+00-0.00000000E+00-0.00000000E+00-0.00000000E+00
16  3-0.00000000E+00-0.00000000E+00-0.00000000E+00-0.00000000E+00-0.00000000E+00
16  4-0.00000000E+00-0.00000000E+00-0.00000000E+00-0.00000000E+00-0.00000000E+00
16  5-0.00000000E+00 6.51019771E-04 1.27529506E-01-0.00000000E+00-0.00000000E+00
16  6-0.00000000E+00-0.00000000E+00 4.15625126E-03 8.14175995E-01-0.00000000E+00
16  7-0.00000000E+00-0.00000000E+00-0.00000000E+00 3.03359625E-05-0.00000000E+00
16  8-3.03359621E-05-0.00000000E+00-0.00000000E+00-6.86188828E-03-0.00000000E+00
16  9-0.00000000E+00-0.00000000E+00-0.00000000E+00 2.51742792E-04 4.93143762E-02
16 10-0.00000000E+00-0.00000000E+00-0.00000000E+00-0.00000000E+00-0.00000000E+00
16 11 4.25318357E-04-0.00000000E+00-0.00000000E+00 9.73143969E-02-0.00000000E+00
16 12-0.00000000E+00-0.00000000E+00-0.00000000E+00-2.31416730E-03 4.85965024E-03
16 13-0.00000000E+00-0.00000000E+00-0.00000000E+00-0.00000000E+00-0.00000000E+00
16 14-4.27832841E-04-0.00000000E+00-0.00000000E+00-9.78897201E-02-0.00000000E+00
16 15-0.00000000E+00-0.00000000E+00-0.00000000E+00 2.33649045E-03 4.88339118E-03
16 16-0.00000000E+00-0.00000000E+00-0.00000000E+00-0.00000000E+00-0.00000000E+00
16 17 2.51448396E-06-0.00000000E+00-0.00000000E+00 5.75323146E-04-0.00000000E+00
16 18-0.00000000E+00-0.00000000E+00-0.00000000E+00 3.17218306E-05 8.43932903E-04
17  1-0.00000000E+00-0.00000000E+00-0.00000000E+00-0.00000000E+00-0.00000000E+00
17  2-0.00000000E+00-0.00000000E+00 5.51133783E-11-0.00000000E+00-0.00000000E+00
17  3 2.51811582E-10-0.00000000E+00-0.00000000E+00-2.35239158E-11-0.00000000E+00
17  4-0.00000000E+00-2.48364612E-10-0.00000000E+00-0.00000000E+00-0.00000000E+00
17  5-0.00000000E+00 1.27529506E-01-6.51019771E-04-0.00000000E+00-0.00000000E+00
17  6-0.00000000E+00-0.00000000E+00 8.14175995E-01-4.15625126E-03-0.00000000E+00
17  7-0.00000000E+00-2.28666080E-11-0.00000000E+00 5.94256960E-03-0.00000000E+00
17  8-5.94256957E-03-0.00000000E+00-0.00000000E+00 3.50289520E-05-0.00000000E+00
17  9-0.00000000E+00-0.00000000E+00-0.00000000E+00 4.93143762E-02-2.51742792E-04
17 10-0.00000000E+00-0.00000000E+00-0.00000000E+00-0.00000000E+00-0.00000000E+00
17 11-2.48461142E-04-0.00000000E+00-0.00000000E+00-5.68488192E-02-0.00000000E+00
17 12-0.00000000E+00-0.00000000E+00-0.00000000E+00 2.19833267E-03-2.35019728E-03
17 13-0.00000000E+00-0.00000000E+00-0.00000000E+00-0.00000000E+00-0.00000000E+00
17 14-2.44105928E-04-0.00000000E+00-0.00000000E+00-5.58523303E-02-0.00000000E+00
17 15-0.00000000E+00-0.00000000E+00-0.00000000E+00 2.17459174E-03 2.30046046E-03
17 16-0.00000000E+00-0.00000000E+00-0.00000000E+00-0.00000000E+00-0.00000000E+00
17 17 4.92567066E-04-0.00000000E+00-0.00000000E+00 1.12701150E-01-0.00000000E+00
17 18-0.00000000E+00-0.00000000E+00-0.00000000E+00 6.21404996E-03-4.30815603E-06
18  1 0.00000000E+00 0.00000000E+00 0.00000000E+00 0.00000000E+00 0.00000000E+00
18  2 0.00000000E+00 0.00000000E+00-3.26211931E-01 0.00000000E+00 0.00000000E+00
18  3-1.18273367E+00 0.00000000E+00 0.00000000E+00-2.96252099E-02 0.00000000E+00
18  4 0.00000000E+00 1.40267183E+00 0.00000000E+00 0.00000000E+00 0.00000000E+00
18  5 0.00000000E+00 2.80085644E-11 0.00000000E+00 0.00000000E+00 0.00000000E+00
18  6 0.00000000E+00 0.00000000E+00 1.26551658E-10 0.00000000E+00 0.00000000E+00
18  7 0.00000000E+00-7.33806462E-03 0.00000000E+00 4.92252339E-03 0.00000000E+00
18  8 4.92252340E-03 0.00000000E+00 0.00000000E+00 0.00000000E+00 0.00000000E+00
18  9 0.00000000E+00 0.00000000E+00 0.00000000E+00 1.49737531E-11 0.00000000E+00
18 10 0.00000000E+00 0.00000000E+00 0.00000000E+00 0.00000000E+00 0.00000000E+00
18 11 5.89160987E-03 0.00000000E+00 0.00000000E+00-4.77299386E-02 0.00000000E+00
18 12 0.00000000E+00 0.00000000E+00 0.00000000E+00 1.05659832E-04-1.83008225E-04
18 13 0.00000000E+00 0.00000000E+00 0.00000000E+00 0.00000000E+00 0.00000000E+00
18 14 5.89160987E-03 0.00000000E+00 0.00000000E+00-4.77299386E-02 0.00000000E+00
18 15 0.00000000E+00 0.00000000E+00 0.00000000E+00 1.05659832E-04 1.83008225E-04
18 16 0.00000000E+00 0.00000000E+00 0.00000000E+00 0.00000000E+00 0.00000000E+00
18 17 5.89160987E-03 0.00000000E+00 0.00000000E+00-4.77299386E-02 0.00000000E+00
18 18 0.00000000E+00 0.00000000E+00 0.00000000E+00-2.11319705E-04 0.00000000E+00
19  1 1.15134331E-10 8.53147386E-10 1.47106359E-09 6.88788863E-11-4.34511315E-09
19  2-4.28838119E-02 5.65342462E-02-0.00000000E+00-2.83576227E-01 3.73841959E-01
19  3-0.00000000E+00-4.72769929E-02 6.23258301E-02-0.00000000E+00 2.18105811E+00
19  4-2.87531521E+00-0.00000000E+00 2.18738449E-02-2.18738450E-02 3.33635487E-11
19  5 3.32975840E-02-0.00000000E+00-0.00000000E+00 4.20015835E-01-4.20015835E-01
19  6 4.30368463E-10 6.39371476E-01-0.00000000E+00-0.00000000E+00 3.89108135E-02
19  7-5.12965950E-02-0.00000000E+00-2.29405346E-02-0.00000000E+00 1.74014450E-02
19  8-0.00000000E+00-6.96057795E-02 9.17621386E-02-0.00000000E+00 3.71033874E-03
19  9-3.71033875E-03-0.00000000E+00 5.64808412E-03-0.00000000E+00-0.00000000E+00
19 10-6.13423722E-02 4.85448712E-01 2.82355223E+00-9.63342334E-03 1.67099810E-02
19 11-0.00000000E+00 1.94487876E-01-3.25104882E-01-0.00000000E+00-1.68134928E-03
19 12 7.87439144E-03-6.19304216E-03-1.08148087E-02-0.00000000E+00-0.00000000E+00
19 13 2.39770308E-02-1.89748428E-01-1.10364820E+00 3.84747168E-03 6.48410550E-03
19 14-0.00000000E+00-3.64928497E-02-1.49895435E-01-0.00000000E+00 4.32275697E-03
19 15-6.74344522E-03 2.42068825E-03-1.78349905E-03-0.00000000E+00-0.00000000E+00
19 16 3.73653414E-02-2.95700284E-01-1.71990403E+00-1.17488438E-02-7.77542235E-05
19 17-0.00000000E+00 2.30733344E-01-3.74649822E-02-0.00000000E+00-8.28204374E-03
19 18 4.50968989E-03 3.77235385E-03 4.01181764E-03-0.00000000E+00-0.00000000E+00
20  1-4.20856843E-11-3.61919573E-10-2.08922893E-10 3.93784006E-10-1.89453557E-09
20  2-5.65342456E-02-4.28838121E-02-0.00000000E+00-3.73841958E-01-2.83576227E-01
20  3-0.00000000E+00-6.23258303E-02-4.72769929E-02-0.00000000E+00 2.87531522E+00
20  4 2.18105811E+00-0.00000000E+00 2.88365537E-02-2.88365538E-02 1.22206459E-10
20  5-2.52577405E-02-0.00000000E+00-0.00000000E+00 5.53711941E-01-5.53711942E-01
20  6 6.94753014E-10-4.84992511E-01-0.00000000E+00-0.00000000E+00 5.12965948E-02
20  7 3.89108137E-02-0.00000000E+00 1.74014447E-02-0.00000000E+00 2.29405350E-02