!Step 2: single point gmcpt calculation averaging 3 states
 !        for AsH3+ at AsH3 structure. The RHF orbitals at
 !        the MP2 optimized structure is taken as the initial
 !        guess of orbitals in the $VEC group.
 $system kdiag=3 mwords=250 memddi=8000 parall=.t. $end
 $contrl runtyp=energy ispher=1 $end
 $contrl icut=9 itol=20 inttyp=rysquad qmttol=1.0d-05 nosym=1 $end
 $scf    npunch=2 conv=1.0d-06 dirscf=.t. diis=.t. soscf=.f. ethrsh=10.0 $end
 $contrl scftyp=mcscf  mult=2 maxit=200 icharg=1 mplevl=2 $end
 $guess  guess=moread norb=85 purify=.t. $end
 $basis  gbasis=cct $end
 $mcscf  cistep=gmcci fullnr=.t. finci=mos
         acurcy=1.d-6 maxit=200 $end
 $trans  dirtrf=.t. $end
 $mrmp   mrpt=gmcpt rdvecs=.f. $end
 $gmcpt  nmofzc=5 nmodoc=9 nmoact=7 nelact=7 stsym(1)=A
         reftyp=ormas nspace=1 mstart(1)=15 mine(1)=7 maxe(1)=7
         kstate(1)=1,1,1
         wstate(1)=1,1,1
         iwgt=0 thrwgt=-1.0 krot=.f. kszdoe=.f. knospn=.f.
         thrde=-1.0 edshft=0.02 $end
 $statpt hssend=.t. $end
 --- Semi-canonical MOs --- generated at Wed Nov 29 22:35:32 2023
 $VEC   
 1  1 9.99999461E-01 7.74369665E-07-2.77716250E-06-4.24868876E-06 1.54508391E-05
 1  2 5.07652490E-06-9.57840757E-07 6.96560416E-09-0.00000000E+00 5.97434807E-07
 1  3-4.51871814E-09-0.00000000E+00-2.40017316E-07-5.40041505E-09-0.00000000E+00
 1  4-5.64364635E-07 2.48686032E-09-0.00000000E+00-1.90163383E-07 4.93139075E-10
 1  5-0.00000000E+00 2.29429060E-08 6.72242466E-08-9.01671526E-08-9.16284309E-10
 1  6-0.00000000E+00-0.00000000E+00 2.63926408E-07 1.43439867E-07-4.07366276E-07
 1  7 1.09171125E-09-0.00000000E+00-0.00000000E+00 1.46704455E-07 1.04362211E-07
 1  8-2.51066665E-07 8.76431528E-10-0.00000000E+00-0.00000000E+00 3.06325646E-07
 1  9-2.46508551E-10-0.00000000E+00-9.96242586E-11-0.00000000E+00-3.91207562E-07
 1 10-0.00000000E+00-1.97713650E-08 4.30350185E-10-0.00000000E+00-1.54518116E-07
 1 11-5.56956708E-07-1.05847940E-06-7.75473926E-08 1.23012941E-07-0.00000000E+00
 1 12-2.59887915E-07 4.47581839E-07-0.00000000E+00 5.89587342E-08-2.40942002E-07
 1 13 1.81983267E-07 2.89744442E-07-0.00000000E+00-0.00000000E+00-1.53446186E-07
 1 14-5.58658859E-07-1.05780418E-06-7.74888087E-08-1.22868357E-07-0.00000000E+00
 1 15-2.60299117E-07-4.48509880E-07-0.00000000E+00 5.89674975E-08-2.40732296E-07
 1 16 1.81764799E-07-2.89391008E-07-0.00000000E+00-0.00000000E+00-5.28924016E-07
 1 17-1.52553264E-06-1.26012203E-06 1.67741970E-07 2.61390059E-11-0.00000000E+00
 1 18 6.93335636E-07-9.40811932E-11-0.00000000E+00-3.68211899E-07 1.94298408E-07
 1 19 1.73913491E-07 7.20560817E-11-0.00000000E+00-0.00000000E+00
 2  1 2.97379364E-06 1.00010336E+00 1.32526014E-04 1.60293071E-04-4.16043775E-04
 2  2-1.34903621E-04-2.71805896E-04 1.89130743E-06 0.00000000E+00-1.42222974E-05
 2  3 9.05101256E-08 0.00000000E+00 1.56929814E-05 2.39279925E-08 0.00000000E+00
 2  4 1.55803843E-05-5.74857797E-08 0.00000000E+00 3.59137659E-06-4.06642775E-09
 2  5 0.00000000E+00-1.96819006E-05 4.44867903E-06 1.52332215E-05-6.87335369E-08
 2  6 0.00000000E+00 0.00000000E+00 6.28400226E-06-7.08410556E-06 8.00103297E-07
 2  7 3.78405637E-08 0.00000000E+00 0.00000000E+00-9.92896226E-07-2.84166539E-06
 2  8 3.83456162E-06-3.75624636E-09 0.00000000E+00 0.00000000E+00-3.34640944E-06
 2  9-3.64032902E-09 0.00000000E+00-1.93136939E-09 0.00000000E+00 6.27023475E-06
 2 10 0.00000000E+00-1.78055512E-06 6.81538328E-09 0.00000000E+00 4.67635265E-06
 2 11 8.75241863E-06 2.77608483E-05 1.87788879E-06-2.88151431E-06 0.00000000E+00
 2 12 4.75310208E-06-7.43952565E-06 0.00000000E+00-8.03168966E-07 4.66454496E-06
 2 13-3.86137599E-06-6.47845937E-06 0.00000000E+00 0.00000000E+00 4.66551025E-06
 2 14 8.64948953E-06 2.77454502E-05 1.87465312E-06 2.87420118E-06 0.00000000E+00
 2 15 4.72358412E-06 7.38678436E-06 0.00000000E+00-7.97430713E-07 4.64362751E-06
 2 16-3.84619680E-06 6.45786601E-06 0.00000000E+00 0.00000000E+00 1.41251706E-05
 2 17 1.21657512E-05 3.15849993E-05-3.11939419E-06-9.14690551E-10 0.00000000E+00
 2 18-1.76959008E-06-1.10235080E-09 0.00000000E+00 4.50253420E-06-2.50609230E-06
 2 19-1.99644189E-06 3.06897187E-09 0.00000000E+00 0.00000000E+00
 3  1-0.00000000E+00-0.00000000E+00-0.00000000E+00-0.00000000E+00-0.00000000E+00
 3  2-0.00000000E+00-0.00000000E+00-0.00000000E+00 1.00002655E+00-0.00000000E+00
 3  3-0.00000000E+00 2.34182791E-05-0.00000000E+00-0.00000000E+00 5.55876279E-06
 3  4-0.00000000E+00-0.00000000E+00-4.58266010E-04-0.00000000E+00-0.00000000E+00
 3  5-7.13690561E-05-0.00000000E+00-0.00000000E+00-0.00000000E+00-0.00000000E+00
 3  6-1.74757936E-05 1.23208590E-07-0.00000000E+00-0.00000000E+00-0.00000000E+00
 3  7-0.00000000E+00 7.68439637E-06-5.37891134E-08-0.00000000E+00-0.00000000E+00
 3  8-0.00000000E+00-0.00000000E+00-2.86191807E-06 2.07366576E-08-0.00000000E+00
 3  9-0.00000000E+00-1.20238517E-07-0.00000000E+00 2.61825354E-07-0.00000000E+00
 3 10-1.00508455E-07-0.00000000E+00-0.00000000E+00 1.99584453E-09-0.00000000E+00
 3 11-0.00000000E+00-0.00000000E+00-0.00000000E+00-0.00000000E+00 1.16674558E-06
 3 12-0.00000000E+00-0.00000000E+00-4.69540827E-06-0.00000000E+00-0.00000000E+00
 3 13-0.00000000E+00-0.00000000E+00 3.40778623E-06-5.95194600E-06-0.00000000E+00
 3 14-0.00000000E+00-0.00000000E+00-0.00000000E+00-0.00000000E+00 1.16430869E-06
 3 15-0.00000000E+00-0.00000000E+00-4.69731517E-06-0.00000000E+00-0.00000000E+00
 3 16-0.00000000E+00-0.00000000E+00 3.40142013E-06 5.94127772E-06-0.00000000E+00
 3 17-0.00000000E+00-0.00000000E+00-0.00000000E+00-0.00000000E+00 8.66151084E-07
 3 18-0.00000000E+00-0.00000000E+00-4.92794123E-06-0.00000000E+00-0.00000000E+00
 3 19-0.00000000E+00-0.00000000E+00-5.34074351E-06 1.63607404E-10
 4  1-8.10411798E-09-2.66222956E-06 8.93156777E-08 3.60965539E-08-4.89326633E-08
 4  2-3.22470866E-08-2.90179746E-03 1.00001994E+00-0.00000000E+00 3.95065045E-08
 4  3-1.02278390E-05-0.00000000E+00 3.43188140E-07-1.09808073E-04-0.00000000E+00
 4  4 1.45506967E-06-5.00941696E-04-0.00000000E+00 2.54135856E-07-8.83869160E-05
 4  5-0.00000000E+00-2.84331170E-08 1.24833538E-07-9.64003628E-08-2.23365252E-05
 4  6-0.00000000E+00-0.00000000E+00 1.95658995E-07-2.37493305E-07 4.18342752E-08
 4  7 7.93159996E-05-0.00000000E+00-0.00000000E+00 6.52669361E-08-5.26417426E-08
 4  8-1.26251965E-08 2.20132561E-05-0.00000000E+00-0.00000000E+00 4.19090695E-08
 4  9-1.50974971E-05-0.00000000E+00-7.57662506E-06-0.00000000E+00 2.94858586E-08
 4 10-0.00000000E+00-8.57127756E-08 2.78320430E-05-0.00000000E+00-1.41499533E-05
 4 11 7.58508705E-05 4.09945197E-05 7.29423318E-06-1.32762423E-05-0.00000000E+00
 4 12 3.45092375E-05-6.25269028E-05-0.00000000E+00-3.13579748E-06 2.33321358E-05
 4 13-2.01963383E-05-2.91772782E-05-0.00000000E+00-0.00000000E+00 1.41031947E-05
 4 14-7.55352782E-05-4.08433876E-05-7.26262756E-06-1.32279080E-05-0.00000000E+00
 4 15-3.43568929E-05-6.22899875E-05-0.00000000E+00 3.11046338E-06-2.32299685E-05
 4 16 2.01195051E-05-2.90743735E-05-0.00000000E+00-0.00000000E+00 4.99619468E-08
 4 17-2.60240761E-07-1.31147530E-07 4.85295252E-08-6.05304843E-07-0.00000000E+00
 4 18 2.39259688E-07-2.23513787E-06-0.00000000E+00-1.25524379E-07 5.97501298E-08
 4 19 6.57742488E-08-3.01893061E-06-0.00000000E+00-0.00000000E+00
 5  1 8.43353964E-07 2.70320485E-04-7.41752579E-06-2.36690202E-06 3.98783281E-06
 5  2 3.02995883E-06 1.00002042E+00 2.90180138E-03 0.00000000E+00-1.70668747E-05
 5  3-3.99277788E-08 0.00000000E+00-7.88002790E-05-2.02105221E-07 0.00000000E+00
 5  4-4.88146644E-04-1.41412423E-06 0.00000000E+00-8.93634623E-05-2.61300137E-07
 5  5 0.00000000E+00-2.16990278E-05 1.18232913E-05 9.87573554E-06 8.00691717E-08
 5  6 0.00000000E+00 0.00000000E+00-4.04449646E-05 4.45203724E-05-4.07540852E-06
 5  7 1.22190555E-07 0.00000000E+00 0.00000000E+00-1.60059593E-05 1.47700549E-05
 5  8 1.23590456E-06 4.71970447E-08 0.00000000E+00 0.00000000E+00-1.09446109E-05
 5  9-2.65306338E-08 0.00000000E+00-1.94527510E-08 0.00000000E+00-6.01746199E-06
 5 10 0.00000000E+00 2.07011984E-05 5.50473313E-08 0.00000000E+00 6.03448529E-06
 5 11-2.94660093E-05-2.38022323E-05-4.41007011E-06 6.98440252E-06 0.00000000E+00
 5 12-1.68416394E-05 2.70319541E-05 0.00000000E+00 5.37855576E-06-1.56093947E-05
 5 13 1.02308390E-05 1.21870486E-05 0.00000000E+00 0.00000000E+00 6.09253160E-06
 5 14-2.97012518E-05-2.40353072E-05-4.44836486E-06-7.05327647E-06 0.00000000E+00
 5 15-1.69771056E-05-2.72784770E-05 0.00000000E+00 5.38712428E-06-1.57141684E-05
 5 16 1.03270442E-05-1.23290449E-05 0.00000000E+00 0.00000000E+00-1.24727381E-05
 5 17 5.29012556E-05 4.57722654E-05-1.56739738E-05-9.06776834E-10 0.00000000E+00
 5 18-5.94047182E-05-1.17676391E-09 0.00000000E+00 3.69350830E-05-1.75151274E-05
 5 19-1.94199556E-05-1.69865728E-08 0.00000000E+00 0.00000000E+00
 6  1-9.53042812E-05-6.77000374E-04 9.74988455E-01-2.24926563E-03 3.63552732E-02
 6  2 4.10954201E-03 4.13980852E-06-5.24464441E-08-0.00000000E+00-1.58191975E-03
 6  3 1.06359389E-05-0.00000000E+00-1.84977193E-04 9.56318041E-07-0.00000000E+00
 6  4-2.07887741E-04 1.57760888E-06-0.00000000E+00-1.02624798E-05 9.48070869E-08
 6  5-0.00000000E+00-1.74628221E-04 3.68324399E-04-1.93696178E-04-1.85385903E-06
 6  6-0.00000000E+00-0.00000000E+00-1.78458093E-04 1.31473958E-04 4.69841346E-05
 6  7-1.09985505E-06-0.00000000E+00-0.00000000E+00-4.25173354E-05 7.34792709E-06
 6  8 3.51694083E-05-1.26612911E-07-0.00000000E+00-0.00000000E+00-6.12486505E-05
 6  9 1.79451786E-07-0.00000000E+00 7.90263798E-08-0.00000000E+00 2.69262206E-05
 6 10-0.00000000E+00 5.52474668E-05-3.19786215E-07-0.00000000E+00 1.26641286E-05
 6 11 3.79993872E-04-6.78941640E-04-1.58514511E-06-3.38954610E-07-0.00000000E+00
 6 12 9.42946627E-06-3.38937173E-05-0.00000000E+00-1.38845248E-05 3.40156677E-05
 6 13-2.01311429E-05-2.73861633E-05-0.00000000E+00-0.00000000E+00 1.24880748E-05
 6 14 3.82176605E-04-6.78807830E-04-1.53532880E-06 4.52445031E-07-0.00000000E+00
 6 15 1.01110028E-05 3.51943348E-05-0.00000000E+00-1.39822958E-05 3.43507469E-05
 6 16-2.03684512E-05 2.76746864E-05-0.00000000E+00-0.00000000E+00-7.72602625E-06
 6 17 7.16182538E-04-6.55628378E-04-1.66741869E-05 1.36341401E-08-0.00000000E+00
 6 18-2.46104632E-04 6.13116509E-08-0.00000000E+00 1.00765018E-04-4.91686968E-05
 6 19-5.15963209E-05-7.27985023E-08-0.00000000E+00-0.00000000E+00
 7  1-1.39169993E-07-1.03086691E-06-1.81666854E-05-3.49360194E-06 2.49157297E-06
 7  2 2.38970857E-06 3.62086567E-07-1.24286263E-04-0.00000000E+00-2.81681294E-03
 7  3 9.74227267E-01-0.00000000E+00 3.55709252E-06-1.16432171E-03-0.00000000E+00
 7  4-1.38882987E-04 4.80263933E-02-0.00000000E+00-5.84748170E-06 2.03882132E-03
 7  5-0.00000000E+00-1.90145531E-06 6.22645603E-06-4.32500072E-06-1.35079476E-03
 7  6-0.00000000E+00-0.00000000E+00 1.13386372E-06-1.71807659E-07-9.62056404E-07
 7  7 2.89669569E-04-0.00000000E+00-0.00000000E+00 1.20762275E-06-4.83585892E-07
 7  8-7.24036832E-07 3.38247918E-04-0.00000000E+00-0.00000000E+00 1.17296761E-06
 7  9 1.24101490E-04-0.00000000E+00-1.53518510E-04-0.00000000E+00-1.64425476E-06
 7 10-0.00000000E+00 7.05535688E-08-1.29811114E-05-0.00000000E+00 3.70003470E-04
 7 11 1.75754893E-03-5.84019243E-04 2.28332947E-05-2.06186385E-05-0.00000000E+00
 7 12 2.05060746E-04-3.68552773E-04-0.00000000E+00-6.55094283E-05 1.35833863E-04
 7 13-7.03244345E-05-1.13503680E-04-0.00000000E+00-0.00000000E+00-3.69826939E-04
 7 14-1.75577593E-03 5.80687788E-04-2.31314689E-05-2.08682371E-05-0.00000000E+00
 7 15-2.05548656E-04-3.68408517E-04-0.00000000E+00 6.56296075E-05-1.35724698E-04
 7 16 7.00950902E-05-1.13191473E-04-0.00000000E+00-0.00000000E+00-1.60517377E-06
 7 17-7.38256818E-06 1.35963807E-06 3.09295448E-07 3.13546888E-05-0.00000000E+00
 7 18 1.99731190E-06 1.56130633E-04-0.00000000E+00-6.34037014E-07 4.21785906E-07
 7 19 2.12251108E-07 6.73314542E-06-0.00000000E+00-0.00000000E+00
 8  1-0.00000000E+00-0.00000000E+00-0.00000000E+00-0.00000000E+00-0.00000000E+00
 8  2-0.00000000E+00-0.00000000E+00-0.00000000E+00-3.76412139E-05-0.00000000E+00
 8  3-0.00000000E+00 9.75149958E-01-0.00000000E+00-0.00000000E+00-8.59470777E-05
 8  4-0.00000000E+00-0.00000000E+00 4.73778731E-02-0.00000000E+00-0.00000000E+00
 8  5 1.69468693E-03-0.00000000E+00-0.00000000E+00-0.00000000E+00-0.00000000E+00
 8  6-7.17688894E-04 4.94175310E-06-0.00000000E+00-0.00000000E+00-0.00000000E+00
 8  7-0.00000000E+00-4.13626876E-05 3.49823786E-07-0.00000000E+00-0.00000000E+00
 8  8-0.00000000E+00-0.00000000E+00-2.45841136E-05 8.53593542E-08-0.00000000E+00
 8  9-0.00000000E+00-8.65521913E-05-0.00000000E+00-6.00156702E-06-0.00000000E+00
 8 10 1.22123517E-04-0.00000000E+00-0.00000000E+00-4.60868827E-07-0.00000000E+00
 8 11-0.00000000E+00-0.00000000E+00-0.00000000E+00-0.00000000E+00 8.98499441E-06
 8 12-0.00000000E+00-0.00000000E+00 1.44871991E-04-0.00000000E+00-0.00000000E+00
 8 13-0.00000000E+00-0.00000000E+00-2.31183847E-05 2.70456070E-05-0.00000000E+00
 8 14-0.00000000E+00-0.00000000E+00-0.00000000E+00-0.00000000E+00 8.99074669E-06
 8 15-0.00000000E+00-0.00000000E+00 1.45232622E-04-0.00000000E+00-0.00000000E+00
 8 16-0.00000000E+00-0.00000000E+00-2.30866637E-05-2.68982257E-05-0.00000000E+00
 8 17-0.00000000E+00-0.00000000E+00-0.00000000E+00-0.00000000E+00 9.48792681E-06
 8 18-0.00000000E+00-0.00000000E+00 1.97118991E-04-0.00000000E+00-0.00000000E+00
 8 19-0.00000000E+00-0.00000000E+00 1.73900373E-05 4.62978880E-08
 9  1 1.08402717E-05 8.23050805E-05 1.77846309E-03 5.96510680E-04-5.46448783E-05
 9  2-1.58946043E-04-6.39953383E-05-1.80153048E-07 0.00000000E+00 9.74580099E-01
 9  3 2.81785814E-03 0.00000000E+00-3.37643566E-04-9.75890714E-07 0.00000000E+00
 9  4 4.74049460E-02 1.36953509E-04 0.00000000E+00 2.05081034E-03 5.94425453E-06
 9  5 0.00000000E+00-1.88790191E-04-2.60004047E-04 4.48794230E-04 6.09872600E-07
 9  6 0.00000000E+00 0.00000000E+00-5.92291860E-04 4.83054231E-04 1.09237624E-04
 9  7 1.89589502E-06 0.00000000E+00 0.00000000E+00-3.03313271E-04 2.26759940E-04
 9  8 7.65533309E-05 9.14532707E-07 0.00000000E+00 0.00000000E+00-1.77653059E-04
 9  9 9.21406054E-07 0.00000000E+00-1.49727366E-06 0.00000000E+00 1.62183046E-04
 9 10 0.00000000E+00 7.61635436E-05 2.61077721E-07 0.00000000E+00-2.60738194E-04
 9 11-1.15449186E-03 2.83992182E-04 1.59446173E-05 2.16597716E-05 0.00000000E+00
 9 12-6.91072900E-05 2.97153653E-04 0.00000000E+00-1.00206587E-05-5.77203015E-05
 9 13 6.77409602E-05 1.19376244E-04 0.00000000E+00 0.00000000E+00-2.64268891E-04
 9 14-1.16914220E-03 2.86094248E-04 1.57282778E-05-2.20120419E-05 0.00000000E+00
 9 15-7.05135928E-05-3.01001214E-04 0.00000000E+00-9.32766965E-06-5.91222037E-05
 9 16 6.84498734E-05-1.20249726E-04 0.00000000E+00 0.00000000E+00 7.84241869E-04
 9 17 3.12329301E-03-3.54421942E-04-1.08446769E-04 1.18974596E-07 0.00000000E+00
 9 18-8.62193633E-04 8.00753965E-07 0.00000000E+00 3.08373690E-04-1.71960035E-04
 9 19-1.36413655E-04-1.19954779E-07 0.00000000E+00 0.00000000E+00
10  1 1.23027587E-04 8.24705234E-04 2.49627563E-03 7.22491103E-03 4.34365081E-04
10  2-1.02265100E-03-2.30914222E-04 1.31525422E-07 0.00000000E+00-1.65624780E-03
10  3-9.24603492E-06 0.00000000E+00-2.97290658E-03 1.69785141E-05 0.00000000E+00
10  4 2.38971726E-03-5.74835884E-08 0.00000000E+00 1.94964896E-03-9.20176440E-06
10  5 0.00000000E+00-2.47317932E-01 9.33582244E-01-6.86264312E-01-3.94767999E-03
10  6 0.00000000E+00 0.00000000E+00-2.21563465E-02 8.10425165E-02-5.88861700E-02
10  7-3.44718651E-04 0.00000000E+00 0.00000000E+00 3.76615836E-05 1.04419890E-03
10  8-1.08186048E-03-2.28536873E-06 0.00000000E+00 0.00000000E+00 8.64933798E-04
10  9 3.36601436E-06 0.00000000E+00 8.26211847E-07 0.00000000E+00-1.97165615E-03
10 10 0.00000000E+00 8.11225686E-04-5.34219401E-06 0.00000000E+00 4.06699750E-03
10 11 6.35774009E-04 5.52858373E-04 8.13694803E-04-8.51351279E-04 0.00000000E+00
10 12 2.21660475E-04 8.99122173E-04 0.00000000E+00 1.37468194E-04 2.72147179E-04
10 13-4.09615373E-04-5.79647750E-04 0.00000000E+00 0.00000000E+00 4.02683953E-03
10 14 6.13083676E-04 5.41183548E-04 8.09301380E-04 8.40178117E-04 0.00000000E+00
10 15 2.23958616E-04-9.01961090E-04 0.00000000E+00 1.39442564E-04 2.66460309E-04
10 16-4.05902873E-04 5.73480036E-04 0.00000000E+00 0.00000000E+00-1.06234869E-03
10 17-2.06640199E-06-7.38722112E-04 4.59076732E-04-1.77826637E-06 0.00000000E+00
10 18-5.49075444E-05-3.08160208E-06 0.00000000E+00-3.19331227E-04 2.65156285E-04
10 19 5.41749417E-05 6.00455381E-07 0.00000000E+00 0.00000000E+00
11  1-3.77870019E-08-2.56203674E-07-9.36130009E-07 5.52281225E-06 3.43695018E-06
11  2 1.83726998E-06-2.69831765E-06-1.52886778E-04 0.00000000E+00-2.68679462E-05
11  3 8.55060457E-05 0.00000000E+00-2.20492990E-05-4.13298598E-03 0.00000000E+00
11  4 3.00585806E-05 1.42915551E-03 0.00000000E+00 1.77727313E-05 2.41856679E-03
11  5 0.00000000E+00-4.99310199E-03 4.88941127E-03 1.03690715E-04 9.66771726E-01
11  6 0.00000000E+00 0.00000000E+00-4.35178302E-04 4.26348284E-04 8.83001788E-06
11  7 8.42563181E-02 0.00000000E+00 0.00000000E+00-5.30621723E-06 4.95851301E-06
11  8 3.47704241E-07 7.38453954E-04 0.00000000E+00 0.00000000E+00-2.90864080E-06
11  9-2.50146591E-05 0.00000000E+00-7.76377679E-04 0.00000000E+00-3.37334082E-07
11 10 0.00000000E+00 4.23968521E-06 8.09938366E-04 0.00000000E+00-4.77933343E-03
11 11-2.55721180E-03-1.39842333E-03-5.09918630E-04 1.32718123E-03 0.00000000E+00
11 12 2.08658531E-04 1.98074709E-04 0.00000000E+00 1.94055745E-04-6.18955011E-04
11 13 4.24899265E-04 6.94559545E-04 0.00000000E+00 0.00000000E+00 4.80661272E-03
11 14 2.55923317E-03 1.40467232E-03 5.18399180E-04 1.33215758E-03 0.00000000E+00
11 15-2.00731467E-04 1.88458040E-04 0.00000000E+00-1.91419135E-04 6.18610998E-04
11 16-4.27191864E-04 7.00473384E-04 0.00000000E+00 0.00000000E+00-2.58705601E-05
11 17 2.23822378E-06-6.17986871E-06 8.47534061E-06 4.53674523E-04 0.00000000E+00
11 18-5.43948840E-06 1.02464826E-03 0.00000000E+00-4.92848630E-06 2.52656028E-06
11 19 2.40192602E-06-2.82261257E-04 0.00000000E+00 0.00000000E+00
12  1 0.00000000E+00 0.00000000E+00 0.00000000E+00 0.00000000E+00 0.00000000E+00
12  2 0.00000000E+00 0.00000000E+00 0.00000000E+00-3.38020953E-07 0.00000000E+00
12  3 0.00000000E+00-8.84652494E-06 0.00000000E+00 0.00000000E+00-3.19371953E-06
12  4 0.00000000E+00 0.00000000E+00 1.75751666E-06 0.00000000E+00 0.00000000E+00
12  5-1.40681248E-06 0.00000000E+00 0.00000000E+00 0.00000000E+00 0.00000000E+00
12  6-2.86256922E-03 9.68306447E-01 0.00000000E+00 0.00000000E+00 0.00000000E+00
12  7 0.00000000E+00-2.43988888E-04 8.25309647E-02 0.00000000E+00 0.00000000E+00
12  8 0.00000000E+00 0.00000000E+00-2.13110856E-06 7.21402815E-04 0.00000000E+00
12  9 0.00000000E+00-2.12905685E-06 0.00000000E+00-4.56126883E-07 0.00000000E+00
12 10 3.31255637E-06 0.00000000E+00 0.00000000E+00-6.22427708E-04 0.00000000E+00
12 11 0.00000000E+00 0.00000000E+00 0.00000000E+00 0.00000000E+00 3.72273621E-04
12 12 0.00000000E+00 0.00000000E+00 8.24222737E-04 0.00000000E+00 0.00000000E+00
12 13 0.00000000E+00 0.00000000E+00 1.87918383E-04-1.97324964E-04 0.00000000E+00
12 14 0.00000000E+00 0.00000000E+00 0.00000000E+00 0.00000000E+00-3.70962200E-04
12 15 0.00000000E+00 0.00000000E+00-8.21528559E-04 0.00000000E+00 0.00000000E+00
12 16 0.00000000E+00 0.00000000E+00-1.87719389E-04-1.95866824E-04 0.00000000E+00
12 17 0.00000000E+00 0.00000000E+00 0.00000000E+00 0.00000000E+00-1.25485945E-06
12 18 0.00000000E+00 0.00000000E+00-2.68342666E-06 0.00000000E+00 0.00000000E+00
12 19 0.00000000E+00 0.00000000E+00 6.29271365E-07 8.82820048E-05
13  1 1.80416699E-04 1.21373756E-03 4.10116255E-03 9.27439611E-03-7.62142964E-04
13  2-1.72707268E-03 2.62354346E-04-2.34615301E-07-0.00000000E+00 2.41010251E-03
13  3 5.47818355E-06-0.00000000E+00 2.38205556E-03-1.84162386E-05-0.00000000E+00
13  4-3.01868060E-03 1.04326344E-06-0.00000000E+00-2.03456903E-03 9.24729824E-06
13  5-0.00000000E+00 9.35009339E-01-2.52810830E-01-6.82198509E-01 4.11642661E-03
13  6-0.00000000E+00-0.00000000E+00 8.07614967E-02-2.25197953E-02-5.82417014E-02
13  7 3.58041347E-04-0.00000000E+00-0.00000000E+00 1.06738826E-03-1.61941699E-04
13  8-9.05446568E-04 3.14758275E-06-0.00000000E+00-0.00000000E+00 7.99420417E-04
13  9-1.29697519E-06-0.00000000E+00 2.72032561E-09-0.00000000E+00-8.06063865E-04
13 10-0.00000000E+00-2.66471171E-04 1.73735449E-06-0.00000000E+00 1.03311524E-03
13 11 1.39184363E-03 5.16349126E-05-1.76612329E-04-2.73601037E-04-0.00000000E+00
13 12-4.76479074E-04-4.49176582E-04-0.00000000E+00-1.17555682E-04 2.15044770E-04
13 13-9.74890880E-05 1.10931370E-04-0.00000000E+00-0.00000000E+00 1.07826033E-03
13 14 1.42725631E-03 6.62613231E-05-1.71970585E-04 2.85409405E-04-0.00000000E+00
13 15-4.77203129E-04 4.54684321E-04-0.00000000E+00-1.19472387E-04 2.20791716E-04
13 16-1.01319329E-04-1.04696469E-04-0.00000000E+00-0.00000000E+00 6.15218199E-03
13 17 2.66213804E-03 1.40394710E-03-1.74500639E-03 1.88455174E-06-0.00000000E+00
13 18 2.82596752E-04 3.14120260E-06-0.00000000E+00 1.00682098E-03-4.55384854E-04
13 19-5.51436123E-04-5.94173450E-07-0.00000000E+00-0.00000000E+00
14  1 0.00000000E+00 0.00000000E+00 0.00000000E+00 0.00000000E+00 0.00000000E+00
14  2 0.00000000E+00 0.00000000E+00 0.00000000E+00 2.98682222E-05 0.00000000E+00
14  3 0.00000000E+00 8.57393915E-04 0.00000000E+00 0.00000000E+00 3.83922018E-04
14  4 0.00000000E+00 0.00000000E+00-8.66461730E-05 0.00000000E+00 0.00000000E+00
14  5 1.95027533E-04 0.00000000E+00 0.00000000E+00 0.00000000E+00 0.00000000E+00
14  6 9.68442783E-01 2.86295413E-03 0.00000000E+00 0.00000000E+00 0.00000000E+00
14  7 0.00000000E+00 8.21117395E-02 2.42740731E-04 0.00000000E+00 0.00000000E+00
14  8 0.00000000E+00 0.00000000E+00 8.82370969E-04 2.62078649E-06 0.00000000E+00
14  9 0.00000000E+00 2.08662919E-04 0.00000000E+00-1.14834073E-04 0.00000000E+00
14 10-1.65116607E-04 0.00000000E+00 0.00000000E+00 2.44986395E-07 0.00000000E+00
14 11 0.00000000E+00 0.00000000E+00 0.00000000E+00 0.00000000E+00-2.16151702E-04
14 12 0.00000000E+00 0.00000000E+00-5.33536970E-04 0.00000000E+00 0.00000000E+00
14 13 0.00000000E+00 0.00000000E+00-4.09296646E-05 2.01740323E-04 0.00000000E+00
14 14 0.00000000E+00 0.00000000E+00 0.00000000E+00 0.00000000E+00-2.18355449E-04
14 15 0.00000000E+00 0.00000000E+00-5.39269847E-04 0.00000000E+00 0.00000000E+00
14 16 0.00000000E+00 0.00000000E+00-4.22105155E-05-2.03049720E-04 0.00000000E+00
14 17 0.00000000E+00 0.00000000E+00 0.00000000E+00 0.00000000E+00 4.30902574E-04
14 18 0.00000000E+00 0.00000000E+00 1.07930598E-03 0.00000000E+00 0.00000000E+00
14 19 0.00000000E+00 0.00000000E+00-3.09507981E-04 7.56685690E-08
15  1 4.81036942E-04 2.90051704E-03 5.55483629E-03 5.60069898E-01 2.37744820E-01
15  2 1.23974528E-01 5.48051753E-05-3.97538525E-07 0.00000000E+00-2.63589292E-04
15  3-3.67190008E-06 0.00000000E+00-4.00669724E-03 1.70288843E-05 0.00000000E+00
15  4-2.07957210E-03 1.06200930E-05 0.00000000E+00-1.12017757E-03 5.29916373E-06
15  5 0.00000000E+00-2.14111534E-02-1.72803843E-02 3.86915377E-02-2.65314193E-05
15  6 0.00000000E+00 0.00000000E+00 7.71697603E-03 7.82432651E-03-1.55413025E-02
15  7-8.42192237E-07 0.00000000E+00 0.00000000E+00 5.79045987E-03 3.81708489E-03
15  8-9.60754477E-03 7.99659294E-06 0.00000000E+00 0.00000000E+00 1.38549027E-02
15  9-9.71436679E-07 0.00000000E+00-3.83199625E-07 0.00000000E+00-1.83139501E-02
15 10 0.00000000E+00-2.74352418E-04 1.68651869E-06 0.00000000E+00 7.48411319E-02
15 11 1.08278918E-01 1.14455038E-02 3.52256736E-03-6.08479640E-03 0.00000000E+00
15 12 6.28104541E-03-1.09614897E-02 0.00000000E+00-1.23295653E-05 1.57316909E-03
15 13-1.56083952E-03-1.58865811E-03 0.00000000E+00 0.00000000E+00 7.48253544E-02
15 14 1.08250733E-01 1.14628858E-02 3.52125029E-03 6.08228798E-03 0.00000000E+00
15 15 6.27586895E-03 1.09532826E-02 0.00000000E+00-1.18579930E-05 1.57204926E-03
15 16-1.56019127E-03 1.58706833E-03 0.00000000E+00 0.00000000E+00 7.24026142E-02
15 17 1.04159870E-01 1.33890285E-02-6.61441879E-03-1.40637237E-07 0.00000000E+00
15 18-1.14499157E-02 3.28849275E-07 0.00000000E+00 2.11641562E-03-6.45073555E-04
15 19-1.47134207E-03 1.66754946E-08 0.00000000E+00 0.00000000E+00
16  1 4.87975451E-05 2.95024683E-04 1.60320324E-03 1.19426379E-02 5.06521037E-03
16  2 6.55684260E-03-3.70124740E-03-1.08483515E-05-0.00000000E+00-5.10516940E-02
16  3-1.50269434E-04-0.00000000E+00 3.79805490E-01 1.11467788E-03-0.00000000E+00
16  4 1.70455537E-01 5.00261296E-04-0.00000000E+00 7.03370874E-02 2.08103014E-04
16  5-0.00000000E+00-4.83475476E-02 4.87590139E-02-4.11466366E-04 1.62941013E-04
16  6-0.00000000E+00-0.00000000E+00 2.96776130E-02-2.90838014E-02-5.93811663E-04
16  7-9.74088586E-05-0.00000000E+00-0.00000000E+00 2.59153541E-02-2.39942827E-02
16  8-1.92107141E-03-8.16532364E-05-0.00000000E+00-0.00000000E+00 6.84512693E-03
16  9 2.82282929E-05-0.00000000E+00 2.83651617E-06-0.00000000E+00 4.64815051E-03
16 10-0.00000000E+00-1.38318520E-02-4.07087452E-05-0.00000000E+00-8.01920004E-02
16 11-1.39095397E-01-4.22167758E-02-1.33314966E-03 5.60657088E-03-0.00000000E+00
16 12-1.74522383E-03 1.29547208E-02-0.00000000E+00 1.35799826E-03-2.39942157E-03
16 13 1.04142331E-03 7.71679026E-04-0.00000000E+00-0.00000000E+00-8.09906086E-02
16 14-1.40459097E-01-4.26421461E-02-1.36667225E-03-5.65091056E-03-0.00000000E+00
16 15-1.82404411E-03-1.30443918E-02-0.00000000E+00 1.35615426E-03-2.40736594E-03
16 16 1.05121168E-03-7.89346574E-04-0.00000000E+00-0.00000000E+00 1.56113763E-01
16 17 2.63900418E-01 8.24352566E-02-1.08098617E-02 4.93570040E-06-0.00000000E+00
16 18-2.27744121E-02 1.38654697E-05-0.00000000E+00 3.79842012E-03-1.94773755E-03
16 19-1.85068257E-03-4.67532444E-06-0.00000000E+00-0.00000000E+00
17  1-4.01417693E-07-2.79727545E-06-1.46017856E-05-1.06777860E-04-4.61689327E-05
17  2-6.48627574E-05 1.17444929E-05-4.00815014E-03-0.00000000E+00 1.56226004E-04
17  3-5.33279730E-02-0.00000000E+00-1.06293135E-03 3.63397044E-01-0.00000000E+00
17  4-4.88776333E-04 1.67066840E-01-0.00000000E+00-1.84898024E-04 6.38043842E-02
17  5-0.00000000E+00 1.64891927E-04-1.63446881E-04-1.44504675E-06 6.39921597E-02
17  6-0.00000000E+00-0.00000000E+00-9.01562655E-05 9.05728876E-05-4.16622239E-07
17  7-3.50397451E-02-0.00000000E+00-0.00000000E+00-8.29365743E-05 7.00389533E-05
17  8 1.28976210E-05-2.92695651E-02-0.00000000E+00-0.00000000E+00-9.15096210E-06
17  9 7.73874174E-03-0.00000000E+00 1.94514493E-03-0.00000000E+00-2.36794238E-05
17 10-0.00000000E+00 3.59567278E-05-1.23277565E-02-0.00000000E+00 1.41324088E-01
17 11 2.46797643E-01 7.02938543E-02 5.90623102E-03-8.21457340E-03-0.00000000E+00
17 12 1.48259951E-02-1.89869949E-02-0.00000000E+00 1.73894104E-04 1.66762750E-03
17 13-1.84152160E-03-3.43983257E-03-0.00000000E+00-0.00000000E+00-1.40805336E-01
17 14-2.45852339E-01-7.00467957E-02-5.89599696E-03-8.17797788E-03-0.00000000E+00
17 15-1.48038727E-02-1.88906410E-02-0.00000000E+00-1.82723995E-04-1.65075908E-03
17 16 1.83348307E-03-3.43302375E-03-0.00000000E+00-0.00000000E+00-4.58644225E-04
17 17-7.79677891E-04-2.29902624E-04 3.27947696E-05 1.79740008E-03-0.00000000E+00
17 18 7.47034305E-05 5.45468362E-03-0.00000000E+00-1.19712299E-05 6.64902830E-06
17 19 5.32220155E-06-1.82559415E-03-0.00000000E+00-0.00000000E+00
18  1 0.00000000E+00 0.00000000E+00 0.00000000E+00 0.00000000E+00 0.00000000E+00
18  2 0.00000000E+00 0.00000000E+00 0.00000000E+00-3.69267836E-05 0.00000000E+00
18  3 0.00000000E+00 1.32703382E-03 0.00000000E+00 0.00000000E+00 6.23192722E-01
18  4 0.00000000E+00 0.00000000E+00 2.28548087E-01 0.00000000E+00 0.00000000E+00
18  5 2.83737155E-01 0.00000000E+00 0.00000000E+00 0.00000000E+00 0.00000000E+00
18  6 4.87931020E-03-2.83596162E-05 0.00000000E+00 0.00000000E+00 0.00000000E+00
18  7 0.00000000E+00-6.26382817E-03 3.32631488E-05 0.00000000E+00 0.00000000E+00
18  8 0.00000000E+00 0.00000000E+00-1.54547354E-02 8.77968302E-05 0.00000000E+00
18  9 0.00000000E+00-1.09146647E-02 0.00000000E+00 3.19622084E-03 0.00000000E+00
18 10 1.14473384E-02 0.00000000E+00 0.00000000E+00-2.95779543E-05 0.00000000E+00
18 11 0.00000000E+00 0.00000000E+00 0.00000000E+00 0.00000000E+00 4.61117674E-03
18 12 0.00000000E+00 0.00000000E+00 2.29585247E-02 0.00000000E+00 0.00000000E+00
18 13 0.00000000E+00 0.00000000E+00 1.41883253E-03-2.33217252E-03 0.00000000E+00
18 14 0.00000000E+00 0.00000000E+00 0.00000000E+00 0.00000000E+00 4.60990121E-03
18 15 0.00000000E+00 0.00000000E+00 2.29212256E-02 0.00000000E+00 0.00000000E+00
18 16 0.00000000E+00 0.00000000E+00 1.41811385E-03 2.33022866E-03 0.00000000E+00
18 17 0.00000000E+00 0.00000000E+00 0.00000000E+00 0.00000000E+00 4.41651506E-03
18 18 0.00000000E+00 0.00000000E+00 1.84820060E-02 0.00000000E+00 0.00000000E+00
18 19 0.00000000E+00 0.00000000E+00-2.51251228E-03-3.31421866E-07
19  1 1.17412510E-03 8.98258915E-03 6.08437318E-02 4.89140044E-01 2.51292126E-01
19  2 7.03553371E-01-3.55796884E-04 1.20446375E-06 0.00000000E+00-4.19045038E-03
19  3 1.32541438E-05 0.00000000E+00-2.28456689E-02 6.78185256E-05 0.00000000E+00
19  4-4.67659448E-03 1.24813934E-05 0.00000000E+00-1.44188638E-02-5.16799179E-05
19  5 0.00000000E+00 5.32766405E-02 5.90701782E-02-1.12346819E-01 1.17647314E-06
19  6 0.00000000E+00 0.00000000E+00-4.13932968E-02-4.97565924E-02 9.11498892E-02
19  7 1.23853370E-05 0.00000000E+00 0.00000000E+00-9.10838052E-02-9.29642519E-02
19  8 1.84048057E-01-2.73618330E-05 0.00000000E+00 0.00000000E+00-4.01021816E-02
19  9-4.57857807E-06 0.00000000E+00-1.98093881E-06 0.00000000E+00 5.68572729E-02
19 10 0.00000000E+00-3.05455035E-03 8.12374590E-06 0.00000000E+00-1.35523714E-01
19 11-3.16680549E-01-3.43987952E-01 9.71194596E-04-1.99526248E-03 0.00000000E+00
19 12 5.62585187E-04-1.98812418E-03 0.00000000E+00-5.71311791E-04 2.42495427E-04
19 13 3.28816364E-04-6.14655624E-04 0.00000000E+00 0.00000000E+00-1.35528029E-01
19 14-3.16646589E-01-3.44147982E-01 9.73490166E-04 1.99890496E-03 0.00000000E+00
19 15 5.80700983E-04 2.01859446E-03 0.00000000E+00-5.71435248E-04 2.45352675E-04
19 16 3.26082572E-04 6.16430466E-04 0.00000000E+00 0.00000000E+00-1.31300158E-01
19 17-2.97136485E-01-3.36237943E-01-2.66418555E-03-1.30486641E-07 0.00000000E+00
19 18-7.26137011E-03-1.57261462E-07 0.00000000E+00 1.04376085E-03-9.80765794E-04