 !#############################################################################
 !                   D_3h RHF GEOMETRY OPTIMIZATION AND HESSIAN TEMPLATE
 ! ---------------------------------------------------------------------------
 ! Replace the symmetry-correct coordinates, should only be two atoms.  
 ! The hydrogen or fluorine should have only one non-zero x,y,z coordinate.
 ! 
 ! Basis set?   gbasis=ccd for 2nd row, 
 !                         cct 3rd/4th,
 !                   SPKrTZP for heavy,
 !                   SPKrTZC beyond 4th
 ! 
 !#############################################################################
 $system kdiag=3 mwords=250 memddi=8000 parall=.t. $end
 $contrl runtyp=energy ispher=1 $end
 $contrl icut=9 itol=20 inttyp=rysquad qmttol=1.0d-05 nosym=1 $end
 $contrl scftyp=mcscf  mult=2 maxit=200 icharg=1 mplevl=2 $end
 $scf    npunch=2 conv=1.0d-06 dirscf=.t. $end
 $force  method=seminum $end
 $trans  dirtrf=.t. $end
 $statpt hssend=.t. $end
 $basis  gbasis=ccd $end
 !#############################################################################
 !
 !                       TURN ON THIS SECTION IF HEAVY ATOM
 !
 !#############################################################################
 !
 -contrl relwfn=LUT-IOTC $end
 -scf  diis=.t. soscf=.f. ethrsh=10.0 $end
 !
 !#############################################################################
 !
 !       TURN ON THIS SECTION IF GMCPT, CHANGE runtyp=energy, scftyp=mcscf
 !
 !#############################################################################
 $guess  guess=moread norb=29 purify=.t. $end
 !       iorder(25)=27,25,26 $end
 $mcscf  cistep=gmcci fullnr=.t. finci=mos
         acurcy=1.d-6 maxit=100 $end
 $mrmp   mrpt=gmcpt rdvecs=.f. $end
 $gmcpt  nmofzc=0 nmodoc=1 nmoact=7 nelact=7 stsym(1)=A
         reftyp=ormas nspace=1 mstart(1)=2 mine(1)=7 maxe(1)=7
         kstate(1)=1,1,1
         wstate(1)=1,1,1
         iwgt=0 thrwgt=-1.0 krot=.f. kszdoe=.f. knospn=.f.
         thrde=-1.0 edshft=0.02 $end
 !#############################################################################
 !
 !             TURN OFF THIS SECTION IF temp.inp, change nosym=1, add C1
 !
 !#############################################################################
 $data
 NH3 cation 3 states diabatization, C2v 
 C1
 N           7.0   0.0000000000   0.0000000000  -0.0000000238
 H           1.0  -0.8919378056   0.0000000000  -0.5149605255
 H           1.0   0.8919378056   0.0000000000  -0.5149605255
 H           1.0   0.0000000000   0.0000000000   1.0299210747
 $end
OPTIMIZED ROHF     MO-S --- GENERATED AT Mon Jan 22 15:12:04 2024
E=      -56.0263536494, E(NUC)=   11.6798117045
 $VEC   
 1  1 1.00131268E+00 2.16674404E-03-3.79353104E-03 0.00000000E+00 0.00000000E+00
 1  2-1.00104240E-10 0.00000000E+00 0.00000000E+00-2.86203205E-11 3.33068268E-04
 1  3-6.66136333E-04 3.33068064E-04 0.00000000E+00 0.00000000E+00 0.00000000E+00
 1  4-3.00042048E-04 5.30560512E-04-5.42955029E-04 0.00000000E+00-3.13475240E-04
 1  5-3.00042048E-04 5.30560512E-04 5.42955029E-04 0.00000000E+00-3.13475240E-04
 1  6-3.00041845E-04 5.30560448E-04 0.00000000E+00 0.00000000E+00 6.26950363E-04
 2  1-4.97573790E-03 4.47750504E-01 3.30634119E-01 0.00000000E+00 0.00000000E+00
 2  2-8.38515865E-09 0.00000000E+00 0.00000000E+00 1.98772831E-09 1.86670523E-03
 2  3-3.73340865E-03 1.86670342E-03 0.00000000E+00 0.00000000E+00 0.00000000E+00
 2  4 1.75751209E-01 2.64759677E-04 3.25694157E-02 0.00000000E+00 1.88039592E-02
 2  5 1.75751209E-01 2.64759677E-04-3.25694157E-02 0.00000000E+00 1.88039592E-02
 2  6 1.75751187E-01 2.64760352E-04 0.00000000E+00 0.00000000E+00-3.76079186E-02
 3  1 0.00000000E+00 0.00000000E+00 0.00000000E+00 5.00119215E-01 0.00000000E+00
 3  2 0.00000000E+00 2.19367054E-01 0.00000000E+00 0.00000000E+00 0.00000000E+00
 3  3 0.00000000E+00 0.00000000E+00 0.00000000E+00-1.59513428E-02 0.00000000E+00
 3  4-3.12136729E-01-3.54061752E-02-2.64819287E-02 0.00000000E+00-2.55678767E-02
 3  5 3.12136729E-01 3.54061752E-02-2.64819287E-02 0.00000000E+00 2.55678767E-02
 3  6 0.00000000E+00 0.00000000E+00 1.78029340E-02 0.00000000E+00 0.00000000E+00
 4  1 6.02797096E-10 5.68227814E-09 1.85622525E-08 0.00000000E+00 0.00000000E+00
 4  2 5.00119214E-01 0.00000000E+00 0.00000000E+00 2.19367074E-01-1.38142678E-02
 4  3-5.38159109E-11 1.38142679E-02 0.00000000E+00 0.00000000E+00 0.00000000E+00
 4  4-1.80212218E-01-2.04417653E-02-2.55678764E-02 0.00000000E+00 3.04131470E-03
 4  5-1.80212218E-01-2.04417653E-02 2.55678764E-02 0.00000000E+00 3.04131470E-03
 4  6 3.60424442E-01 4.08835356E-02 0.00000000E+00 0.00000000E+00-4.12435494E-02
 5  1 0.00000000E+00 0.00000000E+00 0.00000000E+00 0.00000000E+00-6.79821505E-01
 5  2 0.00000000E+00 0.00000000E+00-4.37336000E-01 0.00000000E+00 0.00000000E+00
 5  3 0.00000000E+00 0.00000000E+00 0.00000000E+00 0.00000000E+00 3.24945376E-10
 5  4 0.00000000E+00 0.00000000E+00 0.00000000E+00-2.02875647E-02 0.00000000E+00
 5  5 0.00000000E+00 0.00000000E+00 0.00000000E+00-2.02875647E-02 0.00000000E+00
 5  6 0.00000000E+00 0.00000000E+00 0.00000000E+00-2.02875631E-02 0.00000000E+00
 6  1 3.38113707E-02-1.80264325E-01-1.34540710E+00 0.00000000E+00 0.00000000E+00
 6  2-3.13377968E-08 0.00000000E+00 0.00000000E+00-5.75068601E-08-1.10300285E-03
 6  3 2.20600200E-03-1.10299915E-03 0.00000000E+00 0.00000000E+00 0.00000000E+00
 6  4 1.17194965E-01 6.85834681E-01 4.48649255E-03 0.00000000E+00 2.59027699E-03
 6  5 1.17194965E-01 6.85834681E-01-4.48649255E-03 0.00000000E+00 2.59027699E-03
 6  6 1.17194984E-01 6.85834783E-01 0.00000000E+00 0.00000000E+00-5.18055313E-03
 7  1 3.02697804E-09-1.00545328E-08-1.40505464E-07 0.00000000E+00 0.00000000E+00
 7  2 3.24541944E-01 0.00000000E+00 0.00000000E+00 8.13033592E-01 2.97097017E-03
 7  3 2.20709580E-09-2.97097238E-03 0.00000000E+00 0.00000000E+00 0.00000000E+00
 7  4 6.13356502E-02 7.88391432E-01-7.50679544E-04 0.00000000E+00 6.87422301E-03
 7  5 6.13356502E-02 7.88391432E-01 7.50679544E-04 0.00000000E+00 6.87422301E-03
 7  6-1.22671304E-01-1.57678268E+00 0.00000000E+00 0.00000000E+00 5.57400282E-03
 8  1 0.00000000E+00 0.00000000E+00 0.00000000E+00 3.24541932E-01 0.00000000E+00
 8  2 0.00000000E+00 8.13033605E-01 0.00000000E+00 0.00000000E+00 0.00000000E+00
 8  3 0.00000000E+00 0.00000000E+00 0.00000000E+00 3.43057609E-03 0.00000000E+00
 8  4 1.06236436E-01 1.36553397E+00 6.00741187E-03 0.00000000E+00-7.50678755E-04
 8  5-1.06236436E-01-1.36553397E+00 6.00741187E-03 0.00000000E+00 7.50678755E-04
 8  6 0.00000000E+00 0.00000000E+00 7.30762374E-03 0.00000000E+00 0.00000000E+00
 9  1-1.61915680E-08-4.54455677E-08 9.55295837E-08 0.00000000E+00 0.00000000E+00
 9  2-1.06707327E-01 0.00000000E+00 0.00000000E+00-5.93539532E-01-1.37564908E-01
 9  3-1.77690771E-08 1.37564926E-01 0.00000000E+00 0.00000000E+00 0.00000000E+00
 9  4-5.00910195E-01 3.08502502E-01 1.12873872E-01 0.00000000E+00-1.08944008E-01
 9  5-5.00910195E-01 3.08502502E-01-1.12873872E-01 0.00000000E+00-1.08944008E-01
 9  6 1.00182059E+00-6.17005198E-01 0.00000000E+00 0.00000000E+00 8.65593088E-02
10  1 0.00000000E+00 0.00000000E+00 0.00000000E+00-1.06707322E-01 0.00000000E+00
10  2 0.00000000E+00-5.93539662E-01 0.00000000E+00 0.00000000E+00 0.00000000E+00
10  3 0.00000000E+00 0.00000000E+00 0.00000000E+00-1.58846290E-01 0.00000000E+00
10  4-8.67602025E-01 5.34341977E-01 2.13915366E-02 0.00000000E+00 1.12873899E-01
10  5 8.67602025E-01-5.34341977E-01 2.13915366E-02 0.00000000E+00-1.12873899E-01
10  6 0.00000000E+00 0.00000000E+00-1.74111792E-01 0.00000000E+00 0.00000000E+00
11  1-4.33732065E-02-2.55133971E-01 1.48571930E-01 0.00000000E+00 0.00000000E+00
11  2-2.72295929E-08 0.00000000E+00 0.00000000E+00 1.46572282E-07 8.96176442E-02
11  3-1.79235249E-01 8.96176050E-02 0.00000000E+00 0.00000000E+00 0.00000000E+00
11  4 7.15745078E-01-4.58562749E-01-1.24935804E-01 0.00000000E+00-7.21316976E-02
11  5 7.15745078E-01-4.58562749E-01 1.24935804E-01 0.00000000E+00-7.21316976E-02
11  6 7.15744948E-01-4.58562788E-01 0.00000000E+00 0.00000000E+00 1.44263417E-01
12  1 0.00000000E+00 0.00000000E+00 0.00000000E+00 0.00000000E+00 9.49542709E-01
12  2 0.00000000E+00 0.00000000E+00-1.11212680E+00 0.00000000E+00 0.00000000E+00
12  3 0.00000000E+00 0.00000000E+00 0.00000000E+00 0.00000000E+00-1.30657047E-09
12  4 0.00000000E+00 0.00000000E+00 0.00000000E+00 3.33247251E-02 0.00000000E+00
12  5 0.00000000E+00 0.00000000E+00 0.00000000E+00 3.33247251E-02 0.00000000E+00
12  6 0.00000000E+00 0.00000000E+00 0.00000000E+00 3.33246962E-02 0.00000000E+00
13  1 3.62606864E-09-5.22518437E-09 7.23441944E-08 0.00000000E+00 0.00000000E+00
13  2 8.11687421E-01 0.00000000E+00 0.00000000E+00-1.82754926E+00 9.91115803E-02
13  3-2.03835154E-08-9.91115599E-02 0.00000000E+00 0.00000000E+00 0.00000000E+00
13  4-5.40853685E-02-6.49738141E-01-1.27275610E-01 0.00000000E+00-1.17161179E-01
13  5-5.40853685E-02-6.49738141E-01 1.27275610E-01 0.00000000E+00-1.17161179E-01
13  6 1.08170804E-01 1.29947620E+00 0.00000000E+00 0.00000000E+00-3.37608966E-01
14  1 0.00000000E+00 0.00000000E+00 0.00000000E+00 8.11687399E-01 0.00000000E+00
14  2 0.00000000E+00-1.82754929E+00 0.00000000E+00 0.00000000E+00 0.00000000E+00
14  3 0.00000000E+00 0.00000000E+00 0.00000000E+00 1.14444191E-01 0.00000000E+00
14  4-9.36786419E-02-1.12537948E+00-2.64126389E-01 0.00000000E+00-1.27275591E-01
14  5 9.36786419E-02 1.12537948E+00-2.64126389E-01 0.00000000E+00 1.27275591E-01
14  6 0.00000000E+00 0.00000000E+00-4.36785846E-02 0.00000000E+00 0.00000000E+00
15  1 0.00000000E+00 0.00000000E+00 0.00000000E+00 0.00000000E+00 0.00000000E+00
15  2 0.00000000E+00 0.00000000E+00 0.00000000E+00 0.00000000E+00 0.00000000E+00
15  3 0.00000000E+00 0.00000000E+00 3.20300245E-01 0.00000000E+00 0.00000000E+00
15  4 0.00000000E+00 0.00000000E+00 0.00000000E+00-5.75624299E-01 0.00000000E+00
15  5 0.00000000E+00 0.00000000E+00 0.00000000E+00 5.75624299E-01 0.00000000E+00
15  6 0.00000000E+00 0.00000000E+00 0.00000000E+00 0.00000000E+00 0.00000000E+00
16  1 0.00000000E+00 0.00000000E+00 0.00000000E+00 0.00000000E+00 3.70187401E-08
16  2 0.00000000E+00 0.00000000E+00-3.17878268E-08 0.00000000E+00 0.00000000E+00
16  3 0.00000000E+00 0.00000000E+00 0.00000000E+00 0.00000000E+00 3.20300256E-01
16  4 0.00000000E+00 0.00000000E+00 0.00000000E+00-3.32336831E-01 0.00000000E+00
16  5 0.00000000E+00 0.00000000E+00 0.00000000E+00-3.32336831E-01 0.00000000E+00
16  6 0.00000000E+00 0.00000000E+00 0.00000000E+00 6.64673704E-01 0.00000000E+00
17  1-7.59690027E-01-1.65230410E+00 3.53285081E+00 0.00000000E+00 0.00000000E+00
17  2-2.65027101E-08 0.00000000E+00 0.00000000E+00 1.02769336E-08-3.57481372E-02
17  3 7.14963088E-02-3.57481716E-02 0.00000000E+00 0.00000000E+00 0.00000000E+00
17  4-3.82244039E-01-5.72780964E-01-2.12732798E-01 0.00000000E+00-1.22821326E-01
17  5-3.82244039E-01-5.72780964E-01 2.12732798E-01 0.00000000E+00-1.22821326E-01
17  6-3.82244031E-01-5.72780891E-01 0.00000000E+00 0.00000000E+00 2.45642655E-01
18  1 0.00000000E+00 0.00000000E+00 0.00000000E+00-1.34367150E-08 0.00000000E+00
18  2 0.00000000E+00 4.15951354E-08 0.00000000E+00 0.00000000E+00 0.00000000E+00
18  3 0.00000000E+00 0.00000000E+00 0.00000000E+00-3.03792732E-09 0.00000000E+00
18  4 1.95204374E-08 3.95071464E-09-3.01366830E-01 0.00000000E+00 5.21982641E-01
18  5-1.95204374E-08-3.95071464E-09-3.01366830E-01 0.00000000E+00-5.21982641E-01
18  6 0.00000000E+00 0.00000000E+00 6.02733620E-01 0.00000000E+00 0.00000000E+00
19  1 9.09467076E-09 3.36292592E-08 2.72991331E-08 0.00000000E+00 0.00000000E+00
19  2 3.76170026E-01 0.00000000E+00 0.00000000E+00-1.45697885E+00 1.44227787E-01
19  3 2.38488223E-08-1.44227811E-01 0.00000000E+00 0.00000000E+00 0.00000000E+00
19  4-3.56514334E-01-1.15753692E-01-1.86573462E-01 0.00000000E+00 6.63454338E-01
19  5-3.56514334E-01-1.15753692E-01 1.86573462E-01 0.00000000E+00 6.63454338E-01
19  6 7.13028683E-01 2.31507347E-01 0.00000000E+00 0.00000000E+00 3.40299634E-01
20  1 0.00000000E+00 0.00000000E+00 0.00000000E+00-3.76170013E-01 0.00000000E+00
20  2 0.00000000E+00 1.45697905E+00 0.00000000E+00 0.00000000E+00 0.00000000E+00
20  3 0.00000000E+00 0.00000000E+00 0.00000000E+00-1.66539924E-01 0.00000000E+00
20  4 6.17501043E-01 2.00491353E-01-4.48017809E-01 0.00000000E+00 1.86573490E-01
20  5-6.17501043E-01-2.00491353E-01-4.48017809E-01 0.00000000E+00-1.86573490E-01
20  6 0.00000000E+00 0.00000000E+00-7.71172630E-01 0.00000000E+00 0.00000000E+00
21  1 0.00000000E+00 0.00000000E+00 0.00000000E+00 0.00000000E+00-1.17796632E-01
21  2 0.00000000E+00 0.00000000E+00-6.62447746E-01 0.00000000E+00 0.00000000E+00
21  3 0.00000000E+00 0.00000000E+00 0.00000000E+00 0.00000000E+00-7.18963051E-09
21  4 0.00000000E+00 0.00000000E+00 0.00000000E+00 7.02716793E-01 0.00000000E+00
21  5 0.00000000E+00 0.00000000E+00 0.00000000E+00 7.02716793E-01 0.00000000E+00
21  6 0.00000000E+00 0.00000000E+00 0.00000000E+00 7.02716767E-01 0.00000000E+00
22  1-4.41727770E-01-1.01048564E+00 4.13451127E-01 0.00000000E+00 0.00000000E+00
22  2-6.85632988E-08 0.00000000E+00 0.00000000E+00-2.02741804E-07 3.04900362E-01
22  3-6.09800763E-01 3.04900401E-01 0.00000000E+00 0.00000000E+00 0.00000000E+00
22  4-9.66600571E-02 5.61271111E-02 4.03572967E-01 0.00000000E+00 2.33003070E-01
22  5-9.66600571E-02 5.61271111E-02-4.03572967E-01 0.00000000E+00 2.33003070E-01
22  6-9.66599231E-02 5.61272578E-02 0.00000000E+00 0.00000000E+00-4.66006096E-01
23  1-1.03719529E-07-2.10780566E-07 1.01590390E-07 0.00000000E+00 0.00000000E+00
23  2 6.96378200E-01 0.00000000E+00 0.00000000E+00 9.65103070E-01 3.03436696E-01
23  3-9.09511980E-08-3.03436605E-01 0.00000000E+00 0.00000000E+00 0.00000000E+00
23  4 2.50933100E-01 3.04785149E-01 6.59047077E-01 0.00000000E+00-2.92804408E-01
23  5 2.50933100E-01 3.04785149E-01-6.59047077E-01 0.00000000E+00-2.92804408E-01
23  6-5.01866244E-01-6.09570286E-01 0.00000000E+00 0.00000000E+00 8.48698474E-01
24  1 0.00000000E+00 0.00000000E+00 0.00000000E+00-6.96378237E-01 0.00000000E+00
24  2 0.00000000E+00-9.65102952E-01 0.00000000E+00 0.00000000E+00 0.00000000E+00
24  3 0.00000000E+00 0.00000000E+00 0.00000000E+00-3.50378555E-01 0.00000000E+00
24  4-4.34628886E-01-5.27903329E-01-4.68197561E-01 0.00000000E+00-6.59047017E-01
24  5 4.34628886E-01 5.27903329E-01-4.68197561E-01 0.00000000E+00 6.59047017E-01
24  6 0.00000000E+00 0.00000000E+00 6.73305319E-01 0.00000000E+00 0.00000000E+00
25  1 0.00000000E+00 0.00000000E+00 0.00000000E+00 0.00000000E+00 2.29449328E-08
25  2 0.00000000E+00 0.00000000E+00 1.59161261E-08 0.00000000E+00 0.00000000E+00
25  3 0.00000000E+00 0.00000000E+00 0.00000000E+00 0.00000000E+00-1.08983686E+00
25  4 0.00000000E+00 0.00000000E+00 0.00000000E+00-3.28817333E-01 0.00000000E+00
25  5 0.00000000E+00 0.00000000E+00 0.00000000E+00-3.28817333E-01 0.00000000E+00
25  6 0.00000000E+00 0.00000000E+00 0.00000000E+00 6.57634617E-01 0.00000000E+00
26  1 0.00000000E+00 0.00000000E+00 0.00000000E+00 0.00000000E+00 0.00000000E+00
26  2 0.00000000E+00 0.00000000E+00 0.00000000E+00 0.00000000E+00 0.00000000E+00
26  3 0.00000000E+00 0.00000000E+00 1.08983690E+00 0.00000000E+00 0.00000000E+00
26  4 0.00000000E+00 0.00000000E+00 0.00000000E+00 5.69528332E-01 0.00000000E+00
26  5 0.00000000E+00 0.00000000E+00 0.00000000E+00-5.69528332E-01 0.00000000E+00
26  6 0.00000000E+00 0.00000000E+00 0.00000000E+00 0.00000000E+00 0.00000000E+00
27  1 1.37411151E-01 5.24394297E-01 2.64707022E+00 0.00000000E+00 0.00000000E+00
27  2 6.25388517E-07 0.00000000E+00 0.00000000E+00 9.38726868E-07 5.95146143E-01
27  3-1.19029443E+00 5.95148288E-01 0.00000000E+00 0.00000000E+00 0.00000000E+00
27  4-1.06664510E+00-2.96110197E-01-8.05172022E-01 0.00000000E+00-4.64866027E-01
27  5-1.06664510E+00-2.96110197E-01 8.05172022E-01 0.00000000E+00-4.64866027E-01
27  6-1.06664670E+00-2.96110726E-01 0.00000000E+00 0.00000000E+00 9.29733740E-01
28  1 0.00000000E+00 0.00000000E+00 0.00000000E+00 7.94536430E-01 0.00000000E+00
28  2 0.00000000E+00 1.03036421E+00 0.00000000E+00 0.00000000E+00 0.00000000E+00
28  3 0.00000000E+00 0.00000000E+00 0.00000000E+00-1.46097856E+00 0.00000000E+00
28  4 1.13729345E+00 3.43475482E-01 8.37888634E-01 0.00000000E+00 3.26863787E-01
28  5-1.13729345E+00-3.43475482E-01 8.37888634E-01 0.00000000E+00-3.26863787E-01
28  6 0.00000000E+00 0.00000000E+00 2.71743828E-01 0.00000000E+00 0.00000000E+00
29  1-1.84225874E-07-5.88546026E-07-2.43677397E-06 0.00000000E+00 0.00000000E+00
29  2 7.94536295E-01 0.00000000E+00 0.00000000E+00 1.03036408E+00-1.26524513E+00
29  3 1.06566909E-06 1.26524406E+00 0.00000000E+00 0.00000000E+00 0.00000000E+00
29  4 6.56617644E-01 1.98305897E-01 3.26864545E-01 0.00000000E+00 4.60459210E-01
29  5 6.56617644E-01 1.98305897E-01-3.26864545E-01 0.00000000E+00 4.60459210E-01
29  6-1.31323221E+00-3.96611005E-01 0.00000000E+00 0.00000000E+00 1.02660265E+00
 $END 
