 !#############################################################################
 !                   D_3h RHF GEOMETRY OPTIMIZATION AND HESSIAN TEMPLATE
 ! ---------------------------------------------------------------------------
 ! Replace the symmetry-correct coordinates, should only be two atoms.  
 ! The hydrogen or fluorine should have only one non-zero x,y,z coordinate.
 ! 
 ! Basis set?   gbasis=ccd for 2nd row, 
 !                         cct 3rd/4th,
 !                   SPKrTZP for heavy,
 !                   SPKrTZC beyond 4th
 ! 
 !#############################################################################
 $system kdiag=3 mwords=500 memddi=3000 parall=.t. $end
 $contrl runtyp=optimize ispher=1 $end
 $contrl icut=9 itol=20 inttyp=rysquad qmttol=1.0d-05 nosym=0 $end
 $contrl scftyp=rhf  mult=1 maxit=200 icharg=0 mplevl=2 $end
 $scf    npunch=2 conv=1.0d-06 dirscf=.t. $end
 $force  method=seminum $end
 $trans  dirtrf=.t. $end
 $statpt hssend=.t. $end
 $basis  gbasis=ccd $end
 !#############################################################################
 !
 !                       TURN ON THIS SECTION IF HEAVY ATOM
 !
 !#############################################################################
 !
 -contrl relwfn=LUT-IOTC $end
 -scf  diis=.t. soscf=.f. ethrsh=10.0 $end
 -guess iorder(25)=27,25,26 $end
 -gmcpt nsolut=100 $end
 !
 !#############################################################################
 !
 ! TURN ON THIS SECTION IF GMCPT, CHANGE runtyp=energy, scftyp=mcscf, change nosym=1
 !
 !#############################################################################
 -guess   guess=moread norb=28 purify=.t. norder=1 $end
 -mcscf   cistep=gmcci fullnr=.t. finci=mos
          acurcy=1.d-5 maxit=200 $end
 -mrmp    mrpt=gmcpt rdvecs=.f. $end
 -gmcpt   nmofzc=0 nmodoc=1 nmoact=7 nelact=7 stsym(1)=A
          reftyp=ormas nspace=1 mstart(1)=2 mine(1)=7 maxe(1)=7
          kstate(1)=1,1,1
          wstate(1)=1,1,1
          iwgt=0 thrwgt=-1.0 krot=.f. kszdoe=.f. knospn=.f.
          thrde=-1.0 edshft=0.02 $end
 !#############################################################################
 !
 ! IF temp.inp, TURN OFF $data SECTION here, add $data title C1 AT END OF FILE
 !
 !    IF SOC, $transt $end, turn knospn=.t., restart from gmcpt states calc
 !
 !#############################################################################
 $data
 NH3 geomopt
 CNV 3

N     7.0     0.00000000     0.00000000    -0.06331947
H     1.0     1.00880563     0.00000000     0.29334715
 $end
