 !Step 2: single point gmcpt calculation averaging 3 states
 !        for NH3+ at NH3 structure
 $system kdiag=3 mwords=100 memddi=1000 parall=.t. $end
 $contrl runtyp=energy ispher=1 $end
 $contrl icut=9 itol=20 inttyp=rysquad qmttol=1.0d-05 nosym=1 $end
 $scf    npunch=2 conv=1.0d-06 dirscf=.t.      $end
 $contrl scftyp=mcscf  mult=2 maxit=200 icharg=1 mplevl=2 $end
 $guess  guess=moread norb=29 purify=.t. $end
 $basis  gbasis=ccd $end
 $mcscf  cistep=gmcci fullnr=.t. finci=mos
         acurcy=1.d-6 maxit=100 $end
 $trans  dirtrf=.t. $end
 $mrmp   mrpt=gmcpt rdvecs=.f. $end
 $gmcpt  nmofzc=0 nmodoc=1 nmoact=7 nelact=7 stsym(1)=A
         reftyp=ormas nspace=1 mstart(1)=2 mine(1)=7 maxe(1)=7
         kstate(1)=1,1,1
         wstate(1)=1,1,1 
         iwgt=0 thrwgt=-1.0 krot=.f. kszdoe=.f. knospn=.f.
         thrde=-1.0 edshft=0.02 $end
--- Semi-canonical MOs --- generated at Thu Nov  3 05:40:04 2022
 $VEC   
 1  1 1.00139347E+00-1.72864566E-03-6.44529845E-03 0.00000000E+00 1.17078017E-03
 1  2 0.00000000E+00 0.00000000E+00-4.16377163E-04 0.00000000E+00 8.28379033E-05
 1  3-1.65675808E-04 8.28379043E-05 0.00000000E+00 0.00000000E+00 0.00000000E+00
 1  4-2.10131017E-03 4.79346288E-04-5.19917426E-04 4.39742013E-04-9.00523401E-04
 1  5-2.10131017E-03 4.79346288E-04-5.19917426E-04 4.39742013E-04 9.00523401E-04
 1  6-2.10131017E-03 4.79346291E-04 1.03983485E-03 4.39742012E-04 0.00000000E+00
 2  1 8.60892533E-03 4.42913681E-01 2.76912618E-01-1.26160350E-11 9.01972889E-02
 2  2 0.00000000E+00 0.00000000E+00-4.38094554E-03 0.00000000E+00-4.56773842E-04
 2  3 9.13547685E-04-4.56773843E-04 0.00000000E+00 0.00000000E+00 0.00000000E+00
 2  4 1.94462032E-01 3.57436140E-03 1.87596874E-02-9.25096108E-03 3.24927317E-02
 2  5 1.94462032E-01 3.57436140E-03 1.87596874E-02-9.25096108E-03-3.24927317E-02
 2  6 1.94462033E-01 3.57436141E-03-3.75193749E-02-9.25096108E-03 0.00000000E+00
 3  1-5.59829161E-11-1.68309133E-10-9.60466342E-11 4.93769803E-01 1.80500225E-11
 3  2 0.00000000E+00 2.10890157E-01 8.21492981E-11 0.00000000E+00 1.07324045E-02
 3  3 0.00000000E+00-1.07324045E-02 2.65621859E-02 0.00000000E+00 0.00000000E+00
 3  4-1.92992091E-01-2.60994768E-02 7.95090116E-03 9.27679655E-03-2.32593790E-02
 3  5-1.92992091E-01-2.60994768E-02 7.95090116E-03 9.27679655E-03 2.32593790E-02
 3  6 3.85984182E-01 5.21989544E-02-3.23355250E-02-1.85535932E-02 0.00000000E+00
 4  1 0.00000000E+00 0.00000000E+00 0.00000000E+00 0.00000000E+00 0.00000000E+00
 4  2 4.93769803E-01 0.00000000E+00 0.00000000E+00 2.10890157E-01 0.00000000E+00
 4  3 0.00000000E+00 0.00000000E+00 0.00000000E+00-1.23927133E-02 2.65621859E-02
 4  4-3.34272107E-01-4.52056203E-02-2.32593790E-02 1.60678830E-02-1.89067163E-02
 4  5 3.34272107E-01 4.52056203E-02 2.32593790E-02-1.60678830E-02-1.89067163E-02
 4  6 0.00000000E+00 0.00000000E+00 0.00000000E+00 0.00000000E+00 2.13797099E-02
 5  1-1.32187687E-02-1.84329496E-01-2.88315212E-01-2.61649053E-11 5.93421462E-01
 5  2 0.00000000E+00 0.00000000E+00 3.81592059E-01 0.00000000E+00-1.23865537E-02
 5  3 2.47731074E-02-1.23865537E-02 0.00000000E+00 0.00000000E+00 0.00000000E+00
 5  4 1.12865134E-01 2.40141030E-02 9.33609592E-03 1.87692346E-02 1.61705926E-02
 5  5 1.12865134E-01 2.40141030E-02 9.33609592E-03 1.87692346E-02-1.61705926E-02
 5  6 1.12865134E-01 2.40141030E-02-1.86721919E-02 1.87692346E-02 0.00000000E+00
 6  1 2.79491482E-01 8.67803345E-01 1.44236150E-01 2.42738949E-10 7.05308583E-01
 6  2 0.00000000E+00 8.71285045E-11-1.06091532E-01 0.00000000E+00 6.15316792E-03
 6  3-1.23063358E-02 6.15316793E-03-1.02966847E-11 0.00000000E+00 0.00000000E+00
 6  4-5.23342621E-01-5.44445704E-02-3.91509869E-02-1.05663720E-02-6.78114984E-02
 6  5-5.23342621E-01-5.44445704E-02-3.91509869E-02-1.05663720E-02 6.78114984E-02
 6  6-5.23342621E-01-5.44445705E-02 7.83019733E-02-1.05663720E-02 0.00000000E+00
 7  1 1.02894640E-10 3.41301178E-10 1.18790147E-10-9.30417491E-01 1.88698750E-10
 7  2 0.00000000E+00-4.68659394E-02-4.82958524E-11 0.00000000E+00 1.53786346E-03
 7  3 0.00000000E+00-1.53786345E-03 3.99855525E-02 0.00000000E+00 0.00000000E+00
 7  4-3.64042851E-01-6.62207204E-02 2.67929798E-03 1.88908832E-03-3.75256331E-02
 7  5-3.64042851E-01-6.62207204E-02 2.67929798E-03 1.88908832E-03 3.75256331E-02
 7  6 7.28085702E-01 1.32441440E-01-6.23170051E-02-3.77817660E-03 0.00000000E+00
 8  1 0.00000000E+00 0.00000000E+00 0.00000000E+00 0.00000000E+00 0.00000000E+00
 8  2 9.30417491E-01 0.00000000E+00 0.00000000E+00 4.68659395E-02 0.00000000E+00
 8  3 0.00000000E+00 0.00000000E+00 0.00000000E+00 1.77577178E-03-3.99855525E-02
 8  4 6.30540714E-01 1.14697652E-01 3.75256329E-02-3.27199694E-03 4.06515709E-02
 8  5-6.30540714E-01-1.14697652E-01-3.75256329E-02 3.27199694E-03 4.06515709E-02
 8  6 0.00000000E+00 0.00000000E+00 0.00000000E+00 0.00000000E+00-2.43447325E-02
 9  1-1.71030246E-01-2.68783670E-01 1.67209369E+00 2.38840074E-10-2.53178497E-01
 9  2 0.00000000E+00 8.06909649E-10 6.00106274E-01 0.00000000E+00 2.27741210E-02
 9  3-4.55482420E-02 2.27741210E-02 5.05146485E-11 0.00000000E+00 0.00000000E+00
 9  4 2.29664537E-01-8.61921661E-01-5.81709784E-02 2.39434825E-02-1.00755090E-01
 9  5 2.29664537E-01-8.61921661E-01-5.81709784E-02 2.39434825E-02 1.00755090E-01
 9  6 2.29664537E-01-8.61921664E-01 1.16341957E-01 2.39434825E-02 0.00000000E+00
10  1 0.00000000E+00 0.00000000E+00 0.00000000E+00 0.00000000E+00 0.00000000E+00
10  2-5.40171142E-02 0.00000000E+00 0.00000000E+00 5.86352111E-01 0.00000000E+00
10  3 0.00000000E+00 0.00000000E+00 0.00000000E+00-9.03460110E-02 9.64461375E-02
10  4-4.91476131E-01 1.68151805E+00 6.25598109E-02-6.10912657E-02 5.83843022E-02
10  5 4.91476131E-01-1.68151805E+00-6.25598109E-02 6.10912657E-02 5.83843022E-02
10  6 0.00000000E+00 0.00000000E+00 0.00000000E+00 0.00000000E+00-4.99724686E-02
11  1-1.16696000E-10-1.52382622E-10 1.22892461E-09 5.40171143E-02-1.40865355E-10
11  2 0.00000000E+00-5.86352111E-01 4.36780631E-10 0.00000000E+00-7.82419407E-02
11  3-3.25565903E-11 7.82419407E-02-9.64461375E-02 0.00000000E+00 0.00000000E+00
11  4 2.83753877E-01-9.70824898E-01 1.38535450E-02 3.52710587E-02-6.25598109E-02
11  5 2.83753877E-01-9.70824898E-01 1.38535450E-02 3.52710587E-02 6.25598109E-02
11  6-5.67507753E-01 1.94164979E+00-9.45032258E-02-7.05421175E-02 0.00000000E+00
12  1 0.00000000E+00-5.71266342E-11-2.05533385E-10-5.45946496E-01 1.40428180E-10
12  2 0.00000000E+00 1.89363895E+00-2.33547999E-10 0.00000000E+00-1.30416760E-02
12  3 0.00000000E+00 1.30416760E-02 3.41352480E-02 0.00000000E+00 0.00000000E+00
12  4 3.20845811E-01 5.12647210E-01 9.85023404E-02-4.14233983E-02 2.73517635E-02
12  5 3.20845811E-01 5.12647210E-01 9.85023404E-02-4.14233983E-02-2.73517635E-02
12  6-6.41691623E-01-1.02529442E+00 1.45876984E-01 8.28467966E-02 0.00000000E+00
13  1 0.00000000E+00 0.00000000E+00 0.00000000E+00 0.00000000E+00 0.00000000E+00
13  2-5.45946496E-01 0.00000000E+00 0.00000000E+00 1.89363895E+00 0.00000000E+00
13  3 0.00000000E+00 0.00000000E+00 0.00000000E+00 1.50592303E-02 3.41352480E-02
13  4 5.55721247E-01 8.87931014E-01 2.73517635E-02-7.17474305E-02 1.30085436E-01
13  5-5.55721247E-01-8.87931014E-01-2.73517635E-02 7.17474305E-02 1.30085436E-01
13  6 0.00000000E+00 0.00000000E+00 0.00000000E+00 0.00000000E+00 8.27107924E-02
14  1 9.31933455E-02 3.63134981E-01 2.03866898E-01-1.12693008E-10-6.89374306E-01
14  2 0.00000000E+00 2.25476281E-10 1.09464794E+00 0.00000000E+00-4.01458075E-02
14  3 8.02916150E-02-4.01458075E-02 0.00000000E+00 0.00000000E+00 0.00000000E+00
14  4-5.31088846E-01 1.08442223E-01 2.51440559E-02 5.56197467E-02 4.35507823E-02
14  5-5.31088846E-01 1.08442223E-01 2.51440559E-02 5.56197467E-02-4.35507823E-02
14  6-5.31088846E-01 1.08442222E-01-5.02881117E-02 5.56197467E-02 0.00000000E+00
15  1 0.00000000E+00 0.00000000E+00 0.00000000E+00 0.00000000E+00 0.00000000E+00
15  2-7.63821096E-02 0.00000000E+00 0.00000000E+00 5.19603788E-01 0.00000000E+00
15  3 0.00000000E+00 0.00000000E+00 0.00000000E+00-1.77091138E-01-2.03157416E-01
15  4 1.23511073E-01 1.59783705E-01 3.14910844E-01 3.33047692E-01 5.87277932E-02
15  5-1.23511073E-01-1.59783705E-01-3.14910844E-01-3.33047692E-01 5.87277932E-02
15  6 0.00000000E+00 0.00000000E+00 0.00000000E+00 0.00000000E+00-4.86713789E-01
16  1-1.86160800E-10-3.61515231E-10 8.43843974E-10-7.63821096E-02 1.13353516E-10
16  2 0.00000000E+00 5.19603788E-01-5.36662124E-11 0.00000000E+00 1.53365424E-01
16  3 7.58618735E-11-1.53365424E-01-2.03157416E-01 0.00000000E+00 0.00000000E+00
16  4 7.13091511E-02 9.22511653E-02-3.04899928E-01 1.92285175E-01 3.14910844E-01
16  5 7.13091511E-02 9.22511653E-02-3.04899928E-01 1.92285175E-01-3.14910844E-01
16  6-1.42618303E-01-1.84502331E-01 2.40541654E-01-3.84570349E-01 0.00000000E+00
17  1-5.44059774E-01-1.15679547E+00 2.34574403E+00 6.57085223E-11 1.78826881E-01
17  2 0.00000000E+00-2.52268009E-10-7.41944678E-02 0.00000000E+00-1.07240275E-01
17  3 2.14480549E-01-1.07240274E-01 6.90041416E-11 0.00000000E+00 0.00000000E+00
17  4-3.41756515E-01-3.26647554E-01 3.56478964E-02 3.18425429E-01 6.17439675E-02
17  5-3.41756515E-01-3.26647554E-01 3.56478964E-02 3.18425429E-01-6.17439675E-02
17  6-3.41756515E-01-3.26647554E-01-7.12957926E-02 3.18425430E-01 0.00000000E+00
18  1 0.00000000E+00 0.00000000E+00 0.00000000E+00 0.00000000E+00 0.00000000E+00
18  2 1.86867203E-10 0.00000000E+00 0.00000000E+00-3.55152413E-10 0.00000000E+00
18  3 0.00000000E+00 0.00000000E+00 0.00000000E+00 2.74598916E-11-4.33320785E-11
18  4 1.07715674E-10-2.67956535E-10 5.42310390E-01 1.86088412E-10-3.13103050E-01
18  5-1.07715674E-10 2.67956535E-10-5.42310390E-01-1.86088412E-10-3.13103050E-01
18  6 0.00000000E+00 0.00000000E+00 0.00000000E+00 0.00000000E+00 6.26206099E-01
19  1-6.64738096E-01-1.35705387E+00 2.70746905E+00-1.69273125E-11-1.79768851E-02
19  2 0.00000000E+00 6.40266920E-11 1.10548335E+00 0.00000000E+00 1.59029368E-01
19  3-3.18058736E-01 1.59029368E-01 1.07678764E-11 0.00000000E+00 0.00000000E+00
19  4-7.58853241E-01-2.34726698E-01-3.25197360E-02-3.83989551E-01-5.63258350E-02
19  5-7.58853241E-01-2.34726698E-01-3.25197360E-02-3.83989551E-01 5.63258350E-02
19  6-7.58853241E-01-2.34726698E-01 6.50394722E-02-3.83989551E-01 0.00000000E+00
20  1 0.00000000E+00 0.00000000E+00 0.00000000E+00 0.00000000E+00 0.00000000E+00
20  2 2.47159782E-02 0.00000000E+00 0.00000000E+00 9.74867195E-01 0.00000000E+00
20  3 0.00000000E+00 0.00000000E+00 0.00000000E+00-3.27807409E-02-1.46581787E-01
20  4 3.08774407E-01 2.12992217E-01 1.62589149E-01-6.08067131E-01-3.35965401E-01
20  5-3.08774407E-01-2.12992217E-01-1.62589149E-01 6.08067131E-01-3.35965401E-01
20  6 0.00000000E+00 0.00000000E+00 0.00000000E+00 0.00000000E+00-6.17578069E-01
21  1 0.00000000E+00 0.00000000E+00 2.40930475E-10 2.47159782E-02-5.01874606E-11
21  2 0.00000000E+00 9.74867195E-01 8.77390358E-11 0.00000000E+00 2.83889544E-02
21  3 1.65289757E-11-2.83889544E-02-1.46581787E-01 0.00000000E+00 0.00000000E+00
21  4 1.78270987E-01 1.22971114E-01-5.23707180E-01-3.51067722E-01 1.62589149E-01
21  5 1.78270987E-01 1.22971114E-01-5.23707180E-01-3.51067722E-01-1.62589149E-01
21  6-3.56541974E-01-2.45942227E-01-2.42094512E-01 7.02135444E-01 0.00000000E+00
22  1 0.00000000E+00 0.00000000E+00 0.00000000E+00 0.00000000E+00 0.00000000E+00
22  2 5.69362220E-01 0.00000000E+00 0.00000000E+00-5.62614906E-02 0.00000000E+00
22  3 0.00000000E+00 0.00000000E+00 0.00000000E+00 2.64104579E-01-1.86728397E-01
22  4-1.09251219E-01 3.74079927E-01 3.54626628E-01-3.06297559E-01 6.33522474E-01
22  5 1.09251219E-01-3.74079927E-01-3.54626628E-01 3.06297559E-01 6.33522474E-01
22  6 0.00000000E+00 0.00000000E+00 0.00000000E+00 0.00000000E+00 1.92911378E-02
23  1 1.89244330E-10 4.13965159E-10-1.43469011E-09 5.69362220E-01 1.15085208E-11
23  2 0.00000000E+00-5.62614907E-02-5.55634199E-10 0.00000000E+00-2.28721275E-01
23  3 1.88777648E-11 2.28721275E-01-1.86728397E-01 0.00000000E+00 0.00000000E+00
23  4-6.30762205E-02 2.15975147E-01 2.24034917E-01-1.76840978E-01 3.54626628E-01
23  5-6.30762205E-02 2.15975147E-01 2.24034917E-01-1.76840978E-01-3.54626628E-01
23  6 1.26152442E-01-4.31950293E-01 8.38266253E-01 3.53681956E-01 0.00000000E+00
24  1 8.31522662E-03 1.46170787E-01 2.28911838E+00 1.35529439E-10 3.99670387E-01
24  2 0.00000000E+00-1.03678762E-10 1.03945966E+00 0.00000000E+00-2.36316319E-01
24  3 4.72632639E-01-2.36316319E-01-5.77138371E-11 0.00000000E+00 0.00000000E+00
24  4-6.91902365E-01-3.15130411E-01-4.18381965E-01-1.21251279E-01-7.24658821E-01
24  5-6.91902365E-01-3.15130411E-01-4.18381965E-01-1.21251279E-01 7.24658821E-01
24  6-6.91902365E-01-3.15130411E-01 8.36763931E-01-1.21251279E-01 0.00000000E+00
25  1-1.99787006E-11-3.89988654E-11 6.49380912E-11-3.83631141E-02-1.12096600E-11
25  2 0.00000000E+00 4.38715437E-01 5.60142463E-11 0.00000000E+00-7.61123187E-01
25  3 6.72983216E-11 7.61123187E-01 7.80056082E-01 0.00000000E+00 0.00000000E+00
25  4 5.63297591E-02 4.26644188E-02-4.88892382E-01 1.66725276E-01 3.22371330E-01
25  5 5.63297591E-02 4.26644188E-02-4.88892382E-01 1.66725276E-01-3.22371330E-01
25  6-1.12659518E-01-8.53288377E-02 6.94711409E-02-3.33450553E-01 0.00000000E+00
26  1 0.00000000E+00 0.00000000E+00 0.00000000E+00 0.00000000E+00 0.00000000E+00
26  2-3.83631141E-02 0.00000000E+00 0.00000000E+00 4.38715437E-01 0.00000000E+00
26  3 0.00000000E+00 0.00000000E+00 0.00000000E+00 8.78869354E-01 7.80056082E-01
26  4 9.75660048E-02 7.38969411E-02 3.22371330E-01 2.88776649E-01-1.16650034E-01
26  5-9.75660048E-02-7.38969411E-02-3.22371330E-01-2.88776649E-01-1.16650034E-01
26  6 0.00000000E+00 0.00000000E+00 0.00000000E+00 0.00000000E+00-6.75013557E-01
27  1 1.02877926E-01 3.35992578E-01 1.78551135E+00 7.65967458E-11 3.40191545E-01
27  2 0.00000000E+00 0.00000000E+00 1.95729309E-01 0.00000000E+00 5.15177261E-01
27  3-1.03035452E+00 5.15177261E-01 0.00000000E+00 0.00000000E+00 0.00000000E+00
27  4-6.27451246E-01-2.21194928E-01-2.36143509E-01 6.00032424E-01-4.09012555E-01
27  5-6.27451246E-01-2.21194928E-01-2.36143509E-01 6.00032424E-01 4.09012555E-01
27  6-6.27451246E-01-2.21194928E-01 4.72287017E-01 6.00032424E-01 0.00000000E+00
28  1 0.00000000E+00 0.00000000E+00 0.00000000E+00 0.00000000E+00 0.00000000E+00
28  2 6.98895655E-01 0.00000000E+00 0.00000000E+00 1.32217767E+00 0.00000000E+00
28  3 0.00000000E+00 0.00000000E+00 0.00000000E+00-1.05271068E+00 1.08425307E+00
28  4 1.23644380E+00 4.62472159E-01 4.82011117E-01-4.09620692E-01 7.65521361E-01
28  5-1.23644380E+00-4.62472159E-01-4.82011117E-01 4.09620692E-01 7.65521361E-01
28  6 0.00000000E+00 0.00000000E+00 0.00000000E+00 0.00000000E+00-6.93463829E-02
29  1-6.79967915E-11-1.57315979E-10-7.45957457E-11-6.98895655E-01-6.91349755E-11
29  2 0.00000000E+00-1.32217767E+00-1.38929276E-11 0.00000000E+00-9.11674192E-01
29  3 0.00000000E+00 9.11674192E-01-1.08425307E+00 0.00000000E+00 0.00000000E+00
29  4-7.13861163E-01-2.67008425E-01-2.08942865E-01 2.36494617E-01-4.82011117E-01
29  5-7.13861163E-01-2.67008425E-01-2.08942865E-01 2.36494617E-01 4.82011117E-01
29  6 1.42772233E+00 5.34016851E-01-1.04381061E+00-4.72989234E-01 0.00000000E+00
 $END   
 $DMO      
 1  1 8.60892533E-03 4.42913681E-01 2.76912618E-01-1.26160350E-11 9.01972889E-02
 1  2 0.00000000E+00 0.00000000E+00-4.38094554E-03 0.00000000E+00-4.56773842E-04
 1  3 9.13547685E-04-4.56773843E-04 0.00000000E+00 0.00000000E+00 0.00000000E+00
 1  4 1.94462032E-01 3.57436140E-03 1.87596874E-02-9.25096108E-03 3.24927317E-02
 1  5 1.94462032E-01 3.57436140E-03 1.87596874E-02-9.25096108E-03-3.24927317E-02
 1  6 1.94462033E-01 3.57436141E-03-3.75193749E-02-9.25096108E-03 0.00000000E+00
 2  1-5.59829161E-11-1.68309133E-10-9.60466342E-11 4.93769803E-01 1.80500225E-11
 2  2 0.00000000E+00 2.10890157E-01 8.21492981E-11 0.00000000E+00 1.07324045E-02
 2  3 0.00000000E+00-1.07324045E-02 2.65621859E-02 0.00000000E+00 0.00000000E+00
 2  4-1.92992091E-01-2.60994768E-02 7.95090116E-03 9.27679655E-03-2.32593790E-02
 2  5-1.92992091E-01-2.60994768E-02 7.95090116E-03 9.27679655E-03 2.32593790E-02
 2  6 3.85984182E-01 5.21989544E-02-3.23355250E-02-1.85535932E-02 0.00000000E+00
 3  1 0.00000000E+00 0.00000000E+00 0.00000000E+00 0.00000000E+00 0.00000000E+00
 3  2 4.93769803E-01 0.00000000E+00 0.00000000E+00 2.10890157E-01 0.00000000E+00
 3  3 0.00000000E+00 0.00000000E+00 0.00000000E+00-1.23927133E-02 2.65621859E-02
 3  4-3.34272107E-01-4.52056203E-02-2.32593790E-02 1.60678830E-02-1.89067163E-02
 3  5 3.34272107E-01 4.52056203E-02 2.32593790E-02-1.60678830E-02-1.89067163E-02
 3  6 0.00000000E+00 0.00000000E+00 0.00000000E+00 0.00000000E+00 2.13797099E-02
 4  1-1.32187687E-02-1.84329496E-01-2.88315212E-01-2.61649053E-11 5.93421462E-01
 4  2 0.00000000E+00 0.00000000E+00 3.81592059E-01 0.00000000E+00-1.23865537E-02
 4  3 2.47731074E-02-1.23865537E-02 0.00000000E+00 0.00000000E+00 0.00000000E+00
 4  4 1.12865134E-01 2.40141030E-02 9.33609592E-03 1.87692346E-02 1.61705926E-02
 4  5 1.12865134E-01 2.40141030E-02 9.33609592E-03 1.87692346E-02-1.61705926E-02
 4  6 1.12865134E-01 2.40141030E-02-1.86721919E-02 1.87692346E-02 0.00000000E+00
 5  1 2.79491482E-01 8.67803345E-01 1.44236150E-01 2.42738949E-10 7.05308583E-01
 5  2 0.00000000E+00 8.71285045E-11-1.06091532E-01 0.00000000E+00 6.15316792E-03
 5  3-1.23063358E-02 6.15316793E-03-1.02966847E-11 0.00000000E+00 0.00000000E+00
 5  4-5.23342621E-01-5.44445704E-02-3.91509869E-02-1.05663720E-02-6.78114984E-02
 5  5-5.23342621E-01-5.44445704E-02-3.91509869E-02-1.05663720E-02 6.78114984E-02
 5  6-5.23342621E-01-5.44445705E-02 7.83019733E-02-1.05663720E-02 0.00000000E+00
 6  1 1.02894640E-10 3.41301178E-10 1.18790147E-10-9.30417491E-01 1.88698750E-10
 6  2 0.00000000E+00-4.68659394E-02-4.82958524E-11 0.00000000E+00 1.53786346E-03
 6  3 0.00000000E+00-1.53786345E-03 3.99855525E-02 0.00000000E+00 0.00000000E+00
 6  4-3.64042851E-01-6.62207204E-02 2.67929798E-03 1.88908832E-03-3.75256331E-02
 6  5-3.64042851E-01-6.62207204E-02 2.67929798E-03 1.88908832E-03 3.75256331E-02
 6  6 7.28085702E-01 1.32441440E-01-6.23170051E-02-3.77817660E-03 0.00000000E+00
 7  1 0.00000000E+00 0.00000000E+00 0.00000000E+00 0.00000000E+00 0.00000000E+00
 7  2 9.30417491E-01 0.00000000E+00 0.00000000E+00 4.68659395E-02 0.00000000E+00
 7  3 0.00000000E+00 0.00000000E+00 0.00000000E+00 1.77577178E-03-3.99855525E-02
 7  4 6.30540714E-01 1.14697652E-01 3.75256329E-02-3.27199694E-03 4.06515709E-02
 7  5-6.30540714E-01-1.14697652E-01-3.75256329E-02 3.27199694E-03 4.06515709E-02
 7  6 0.00000000E+00 0.00000000E+00 0.00000000E+00 0.00000000E+00-2.43447325E-02
 $END    
 $REFDET 
 3
 1  29
        1    0.980664
      717    0.071270
      393    0.071270
       17   -0.045209
        8   -0.045209
      708    0.037059
      402    0.037059
      215    0.033579
      218    0.032493
      227    0.032493
      390    0.032244
      705    0.032244
        2    0.029851
      212   -0.027631
       51   -0.027110
       76   -0.027110
      122   -0.025351
      113   -0.025351
      106    0.024775
      179    0.021855
      143    0.021855
      387   -0.021558
      702   -0.021558
      424    0.021392
      773    0.021392
      184    0.020906
      159    0.020906
      742    0.020856
      368    0.020856
 2 29
       36    0.983795
      463    0.070557
      121   -0.040013
      472    0.039905
      285    0.033200
      460    0.032676
      288    0.032081
      297    0.031956
       71    0.029975
      145    0.027747
      282   -0.027499
      123    0.025702
      112    0.025702
       16   -0.025540
      142   -0.025473
       39    0.025441
       73    0.025441
      157    0.024303
      716   -0.024246
      249    0.023563
       64    0.022898
      457   -0.022835
      148    0.022828
       86   -0.022158
       41   -0.022158
      356   -0.021527
      771   -0.021281
      494    0.021146
      254    0.020394
 3 29
       71    0.983795
      822   -0.070557
      111   -0.040013
      813   -0.039905
      320    0.033200
      810   -0.032676
      332    0.032081
      323    0.031956
       36   -0.029975
      180    0.027747
      317   -0.027499
      122    0.025702
      113   -0.025702
        6   -0.025540
      177   -0.025473
       38    0.025441
       74   -0.025441
      183    0.024303
      391   -0.024246
      248   -0.023563
       99    0.022898
      807    0.022835
      192    0.022828
       76    0.022158
       51   -0.022158
      751   -0.021527
      421   -0.021281
      878    0.021146
      264   -0.020394
 1  1 1.00000000E+00 0.00000000E+00 0.00000000E+00
 2  1 0.00000000E+00 1.00000000E+00 0.00000000E+00
 3  1 0.00000000E+00 0.00000000E+00 1.00000000E+00
 $END
 $data
 NH3+ 3 states calculation at NH3 structure.
 c1
