8 !Step 2: single point gmcpt calculation averaging 10 states
 !        for FeF4- at optimized geometry. The UHF orbitals at
 !        the MP2 optimized structure is taken as the initial
 !        guess of orbitals in the $VEC group. 
 $system kdiag=3 mwords=250 memddi=1000 parall=.t. $end
 $contrl runtyp=energy ispher=1 relwfn=dk $end
 $contrl icut=9 itol=20 inttyp=rysquad qmttol=1.0d-05 nosym=1 $end
 $scf    npunch=2 conv=1.0d-06 dirscf=.t. diis=.t. soscf=.f. ethrsh=10.0 $end
 $contrl scftyp=mcscf mult=5 maxit=200 icharg=0 mplevl=2 $end
 $relwfn norder=3 $end
 $guess  guess=moread norb=158 purify=.t. $end
 $basis  gbasis=cct $end
 $mcscf  cistep=gmcci fullnr=.t. finci=mos
         acurcy=1.d-6 maxit=200 $end
 $trans  dirtrf=.t. $end
 $mrmp   mrpt=gmcpt rdvecs=.f. $end
 $gmcpt  nmofzc=12 nmodoc=12 nmoact=5 nelact=6 stsym(1)=A nsolut=100
         reftyp=ormas nspace=1 mstart(1)=25 mine(1)=6 maxe(1)=6
         kstate(1)=1,1,1
         wstate(1)=1,1,1
         iwgt=0 thrwgt=-1.0 krot=.f. kszdoe=.f. knospn=.f.
         thrde=-1.0 edshft=0.02 $end
 $statpt hssend=.t. $end
 -data
 FeH4- 10 states calculation at opt geometry.
 C1
 CO         27.0  -0.0000000000  -0.0000000000   0.0000000000
 F           9.0  -0.8572839723   1.4848593965   0.0000000000
 F           9.0  -0.8572839723  -1.4848593965   0.0000000000
 F           9.0   1.7145679445   0.0000000000   0.0000000000
 $end
--- Semi-canonical MOs --- generated at Thu Dec 14 00:13:05 2023
 $VEC   
 1  1 9.83222004E-01-1.82413001E-01-4.03917786E-04 7.86079817E-06 1.36144212E-07
 1  2 4.95464472E-07 9.25482943E-06 0.00000000E+00 0.00000000E+00 0.00000000E+00
 1  3 2.03419635E-11 0.00000000E+00 0.00000000E+00-7.33513522E-10-3.87092792E-11
 1  4 0.00000000E+00-7.56568207E-10-3.72707905E-11 0.00000000E+00 1.10895576E-10
 1  5 0.00000000E+00 0.00000000E+00 0.00000000E+00 0.00000000E+00 0.00000000E+00
 1  6 5.15935818E-07 5.16019842E-07-1.03195566E-06 0.00000000E+00 0.00000000E+00
 1  7 0.00000000E+00 1.46537404E-06 1.46538960E-06-2.93076364E-06 0.00000000E+00
 1  8 0.00000000E+00 0.00000000E+00 1.25140409E-06 1.25139316E-06-2.50279725E-06
 1  9 0.00000000E+00 0.00000000E+00 0.00000000E+00 9.83268262E-08 9.82903447E-08
 1 10-1.96617171E-07 0.00000000E+00 0.00000000E+00 0.00000000E+00 2.25013746E-08
 1 11 0.00000000E+00 0.00000000E+00 0.00000000E+00 0.00000000E+00-3.02234578E-08
 1 12 0.00000000E+00 4.44363236E-11 0.00000000E+00 0.00000000E+00 7.04341489E-08
 1 13 0.00000000E+00 0.00000000E+00 0.00000000E+00 0.00000000E+00-9.44946372E-08
 1 14 0.00000000E+00 0.00000000E+00 0.00000000E+00 0.00000000E+00-1.41241132E-08
 1 15-1.41178100E-08-3.76575398E-08-3.09179348E-11 0.00000000E+00 0.00000000E+00
 1 16 0.00000000E+00 0.00000000E+00 0.00000000E+00-8.26983080E-09 3.30805324E-08
 1 17 3.30694601E-08 0.00000000E+00 0.00000000E+00 3.98335266E-11-9.52972369E-08
 1 18-1.97579854E-07-6.55639036E-08-1.70353487E-06-1.34700981E-07 2.33286553E-07
 1 19 0.00000000E+00 1.50126695E-07-2.59998515E-07 0.00000000E+00-1.03607787E-06
 1 20 1.79452284E-06 0.00000000E+00 1.12752830E-07-4.04908669E-07 2.92155839E-07
 1 21 5.17655316E-07 0.00000000E+00 0.00000000E+00-2.52521897E-07 8.42423199E-07
 1 22-5.89901302E-07-1.09495740E-06 0.00000000E+00 0.00000000E+00-3.99440642E-07
 1 23-2.63259416E-07 0.00000000E+00-1.17733855E-07 0.00000000E+00 8.07789808E-07
 1 24 0.00000000E+00-2.71883951E-07 4.70933424E-07 0.00000000E+00-9.53028554E-08
 1 25-1.97588355E-07-6.55597263E-08-1.70352619E-06-1.34700764E-07-2.33286484E-07
 1 26 0.00000000E+00 1.50127598E-07 2.59995517E-07 0.00000000E+00-1.03607697E-06
 1 27-1.79452155E-06 0.00000000E+00 1.12752699E-07-4.04908620E-07 2.92155921E-07
 1 28-5.17656611E-07 0.00000000E+00 0.00000000E+00-2.52522135E-07 8.42423958E-07
 1 29-5.89901823E-07 1.09495886E-06 0.00000000E+00 0.00000000E+00-3.99434675E-07
 1 30 2.63248265E-07 0.00000000E+00 1.17735057E-07 0.00000000E+00 8.07796655E-07
 1 31 0.00000000E+00-2.71898804E-07-4.70919666E-07 0.00000000E+00-9.53129703E-08
 1 32-1.97577724E-07-6.55391920E-08-1.70353862E-06 2.69350100E-07-4.37598820E-11
 1 33 0.00000000E+00-3.00172119E-07 0.00000000E+00 0.00000000E+00 2.07205929E-06
 1 34 4.15823665E-11 0.00000000E+00-6.63720135E-07 3.71570462E-07 2.92149673E-07
 1 35 0.00000000E+00 0.00000000E+00 0.00000000E+00 1.38995443E-06-8.00024576E-07
 1 36-5.89929858E-07 0.00000000E+00 0.00000000E+00 0.00000000E+00-8.55426811E-07
 1 37 0.00000000E+00 0.00000000E+00 0.00000000E+00 0.00000000E+00 6.03887302E-07
 1 38 0.00000000E+00 5.43788197E-07 0.00000000E+00 0.00000000E+00
 2  1 1.82405352E-01 9.83187844E-01 5.22797311E-03-4.82474697E-04 1.93834181E-04
 2  2-3.22748905E-04-4.09917747E-05-1.26272335E-10 3.26640668E-11 0.00000000E+00
 2  3-1.66927427E-11 0.00000000E+00 0.00000000E+00-5.22013004E-10 4.86014031E-11
 2  4 0.00000000E+00-6.10444358E-10 5.69092244E-11 0.00000000E+00 3.93838570E-11
 2  5 0.00000000E+00 0.00000000E+00 0.00000000E+00 0.00000000E+00 0.00000000E+00
 2  6-5.31469319E-05-5.31468427E-05 1.06293775E-04 0.00000000E+00 0.00000000E+00
 2  7 0.00000000E+00 4.87640791E-05 4.87639858E-05-9.75280649E-05 0.00000000E+00
 2  8 0.00000000E+00 0.00000000E+00 9.56998899E-05 9.56998780E-05-1.91399768E-04
 2  9 0.00000000E+00 0.00000000E+00 0.00000000E+00-1.61573504E-05-1.61574377E-05
 2 10 3.23147881E-05 0.00000000E+00 0.00000000E+00 0.00000000E+00-3.28158464E-06
 2 11 0.00000000E+00 0.00000000E+00 0.00000000E+00 0.00000000E+00 4.40270632E-06
 2 12 0.00000000E+00 0.00000000E+00 0.00000000E+00 0.00000000E+00 4.91065482E-06
 2 13 0.00000000E+00 0.00000000E+00 0.00000000E+00 0.00000000E+00-6.58830694E-06
 2 14 0.00000000E+00-2.75679895E-11 0.00000000E+00 0.00000000E+00-4.63739917E-06
 2 15-4.63740107E-06-1.23663991E-05 0.00000000E+00 0.00000000E+00 0.00000000E+00
 2 16 0.00000000E+00 0.00000000E+00 0.00000000E+00-2.71538239E-06 1.08615311E-05
 2 17 1.08615345E-05 0.00000000E+00 0.00000000E+00 0.00000000E+00 2.35910378E-06
 2 18 6.28888382E-06 2.42885843E-06-2.24586782E-05 3.72659515E-06-6.45462381E-06
 2 19 0.00000000E+00-2.47392517E-06 4.28487225E-06 0.00000000E+00-6.07474758E-06
 2 20 1.05219256E-05 0.00000000E+00-3.46356957E-07 3.08726245E-06-2.74090549E-06
 2 21-3.43364139E-06 0.00000000E+00 0.00000000E+00 1.70382398E-06-1.30856481E-05
 2 22 1.13818241E-05 1.47894371E-05 0.00000000E+00 0.00000000E+00 2.22235042E-06
 2 23 2.35568390E-06 0.00000000E+00 1.05347505E-06 0.00000000E+00-5.41453790E-06
 2 24 0.00000000E+00 2.43294194E-06-4.21395665E-06 0.00000000E+00 2.35909612E-06
 2 25 6.28887302E-06 2.42886261E-06-2.24586599E-05 3.72658296E-06 6.45461394E-06
 2 26 0.00000000E+00-2.47390496E-06-4.28484929E-06 0.00000000E+00-6.07476087E-06
 2 27-1.05219349E-05 0.00000000E+00-3.46354289E-07 3.08725810E-06-2.74090382E-06
 2 28 3.43363862E-06 0.00000000E+00 0.00000000E+00 1.70382189E-06-1.30856482E-05
 2 29 1.13818263E-05-1.47894393E-05 0.00000000E+00 0.00000000E+00 2.22237837E-06
 2 30-2.35564075E-06 0.00000000E+00-1.05351507E-06 0.00000000E+00-5.41454768E-06
 2 31 0.00000000E+00 2.43291421E-06 4.21393878E-06 0.00000000E+00 2.35893881E-06
 2 32 6.28884365E-06 2.42882925E-06-2.24586145E-05-7.45321071E-06 0.00000000E+00
 2 33 0.00000000E+00 4.94782701E-06-2.37952849E-11 0.00000000E+00 1.21495121E-05
 2 34 0.00000000E+00 0.00000000E+00 4.80408334E-06-2.06319041E-06-2.74089293E-06
 2 35 0.00000000E+00 0.00000000E+00 0.00000000E+00-2.04803223E-05 9.09852764E-06
 2 36 1.13817947E-05 0.00000000E+00 0.00000000E+00 0.00000000E+00 6.30252681E-06
 2 37 1.01113317E-11 0.00000000E+00-1.78185727E-11 0.00000000E+00-3.58983954E-06
 2 38 0.00000000E+00-4.86588749E-06 0.00000000E+00 0.00000000E+00
 3  1 0.00000000E+00-3.75056657E-11 0.00000000E+00-5.00419601E-11 1.50090200E-11
 3  2-4.52222077E-11 0.00000000E+00-2.10379150E-02 9.99743784E-01 0.00000000E+00
 3  3-1.66780062E-04 7.92556394E-03 0.00000000E+00-4.07672165E-05 1.93729286E-03
 3  4 0.00000000E+00-3.99549862E-05 1.89869699E-03 0.00000000E+00 6.58748649E-06
 3  5-3.13043871E-04 0.00000000E+00-2.38813105E-07 1.13482855E-05 0.00000000E+00
 3  6 2.30717655E-06-2.30717449E-06 0.00000000E+00 1.26600524E-04 0.00000000E+00
 3  7 0.00000000E+00-6.65545617E-07 6.65539207E-07 0.00000000E+00-3.65207550E-05
 3  8 0.00000000E+00 0.00000000E+00-4.04627273E-07 4.04621091E-07 0.00000000E+00
 3  9-2.22042477E-05 0.00000000E+00 0.00000000E+00 7.38568551E-08-7.38550666E-08
 3 10 0.00000000E+00 4.05265901E-06 0.00000000E+00 0.00000000E+00 4.51145350E-08
 3 11-2.14379880E-06 0.00000000E+00-9.58731903E-07 0.00000000E+00 2.01712098E-08
 3 12 0.00000000E+00-8.06987100E-08 3.83493981E-06 0.00000000E+00 3.07579799E-07
 3 13-1.46168151E-05 0.00000000E+00-6.53685676E-06 0.00000000E+00 1.37565422E-07
 3 14 0.00000000E+00-5.50227025E-07 2.61473721E-05 0.00000000E+00 4.47840754E-08
 3 15 4.88146486E-08 0.00000000E+00-3.43463096E-06 0.00000000E+00 3.28881448E-06
 3 16 0.00000000E+00 0.00000000E+00 0.00000000E+00-8.22036114E-08 3.53500301E-09
 3 17-3.54518310E-09 0.00000000E+00 0.00000000E+00 1.95633330E-07-2.09652662E-06
 3 18-2.73733256E-06 2.29398910E-06-5.59487820E-06 2.39795770E-06-1.17178106E-05
 3 19 0.00000000E+00-1.57887618E-06-8.48876309E-06 0.00000000E+00-5.08669411E-06
 3 20-3.88497478E-07 0.00000000E+00 1.69923254E-07-6.75913022E-07 5.05989767E-07
 3 21 4.25510385E-07 0.00000000E+00 0.00000000E+00-2.17015744E-07 5.62600991E-07
 3 22-3.45585247E-07 1.83770785E-06 0.00000000E+00 0.00000000E+00-7.08651863E-07
 3 23-1.08410536E-06 0.00000000E+00-3.40847158E-08 0.00000000E+00 1.71306389E-06
 3 24 0.00000000E+00-7.62307651E-07 1.48856468E-06 0.00000000E+00 2.04619539E-06
 3 25 2.67162598E-06-2.23892140E-06 5.46057060E-06-2.01394428E-06-1.16249665E-05
 3 26 0.00000000E+00 2.02530216E-06-8.56459989E-06 0.00000000E+00 5.36155114E-06
 3 27-6.08358002E-07 0.00000000E+00-1.81547927E-07 6.75394293E-07-4.93846367E-07
 3 28 4.04827134E-07 0.00000000E+00 0.00000000E+00 3.09618369E-07-6.46906463E-07
 3 29 3.37288095E-07 1.85880067E-06 0.00000000E+00 0.00000000E+00 6.95712202E-07
 3 30-1.08554264E-06 0.00000000E+00-5.94763513E-10 0.00000000E+00-1.67013800E-06
 3 31 0.00000000E+00 7.36742130E-07 1.45700305E-06 0.00000000E+00 5.03298618E-08
 3 32 6.57503095E-08-5.50315146E-08 1.34231840E-07 2.72404297E-07-7.85058862E-06
 3 33 0.00000000E+00 1.57532247E-07-1.16480071E-05 0.00000000E+00-5.29761985E-08
 3 34-9.54686135E-06 0.00000000E+00 1.87852437E-08-6.66938640E-09-1.21158573E-08
 3 35-4.36191965E-07 0.00000000E+00 0.00000000E+00 2.42864139E-08-3.25471404E-08
 3 36 8.26072649E-09 2.71628426E-06 0.00000000E+00 0.00000000E+00 4.96605760E-08
 3 37 4.25419591E-07 0.00000000E+00-7.45331146E-07 0.00000000E+00-2.65366772E-08
 3 38 0.00000000E+00-4.00899770E-08 1.74570871E-07 0.00000000E+00
 4  1 2.71989203E-11 1.31190574E-10 4.02493971E-11 1.27425682E-10-0.00000000E+00
 4  2-0.00000000E+00-6.44318131E-11 9.99743784E-01 2.10379150E-02-0.00000000E+00
 4  3 7.92556392E-03 1.66780071E-04-0.00000000E+00 1.93729300E-03 4.07670981E-05
 4  4-0.00000000E+00 1.89869712E-03 3.99548970E-05-0.00000000E+00-3.13043883E-04
 4  5-6.58747018E-06-0.00000000E+00 1.13482903E-05 2.38809479E-07-0.00000000E+00
 4  6-1.09639229E-04 1.09639312E-04-8.29029909E-11 2.66407641E-06-0.00000000E+00
 4  7-0.00000000E+00 3.16279323E-05-3.16278837E-05-4.80242869E-11-7.68535484E-07
 4  8-0.00000000E+00-0.00000000E+00 1.92294629E-05-1.92294383E-05-2.46526107E-11
 4  9-4.67260552E-07-0.00000000E+00-0.00000000E+00-3.50972879E-06 3.50970679E-06
 4 10 2.21725009E-11 8.52807998E-08-0.00000000E+00-0.00000000E+00-2.14379168E-06
 4 11-4.50978875E-08-0.00000000E+00-2.01945645E-08-0.00000000E+00-9.58745517E-07
 4 12-0.00000000E+00 3.83494387E-06 8.06997297E-08-0.00000000E+00-1.46168200E-05
 4 13-3.07586619E-07-0.00000000E+00-1.37552315E-07-0.00000000E+00-6.53685079E-06
 4 14-0.00000000E+00 2.61473727E-05 5.50223069E-07-0.00000000E+00-2.12712576E-06
 4 15-2.32002772E-06-0.00000000E+00-7.22554324E-08-0.00000000E+00 6.92104549E-08
 4 16-0.00000000E+00-0.00000000E+00-0.00000000E+00 3.90598042E-06-1.69428492E-07
 4 17 1.69426972E-07-0.00000000E+00-0.00000000E+00 4.08526594E-09 1.15225926E-06
 4 18 1.50449512E-06-1.26082051E-06 3.07509149E-06-9.07776685E-06 1.96032681E-06
 4 19-0.00000000E+00-1.06454878E-05-1.98150193E-06-0.00000000E+00-6.64068333E-06
 4 20-5.23458990E-06-0.00000000E+00 2.80006312E-07-1.89500030E-09-2.78111312E-07
 4 21-4.82805770E-07-0.00000000E+00-0.00000000E+00-2.20589824E-06 2.01594434E-06
 4 22 1.89953903E-07 5.40078794E-07-0.00000000E+00-0.00000000E+00 2.93039215E-07
 4 23-5.67668504E-08-0.00000000E+00 7.94695797E-07-0.00000000E+00-9.84691913E-07
 4 24-0.00000000E+00 5.91538550E-07-7.18535076E-07-0.00000000E+00 1.23945922E-06
 4 25 1.61832890E-06-1.35622260E-06 3.30773975E-06-9.17060938E-06-2.45155805E-06
 4 26-0.00000000E+00-1.05696391E-05 1.62267405E-06-0.00000000E+00-6.42081887E-06
 4 27 5.21361189E-06-0.00000000E+00 2.72611655E-07 2.65359945E-08-2.99147650E-07
 4 28 5.00276343E-07-0.00000000E+00-0.00000000E+00-2.19482027E-06 1.99050107E-06
 4 29 2.04319192E-07-4.62284825E-07-0.00000000E+00-0.00000000E+00 3.22589249E-07
 4 30 1.11162906E-08-0.00000000E+00-7.95426374E-07-0.00000000E+00-1.05587879E-06
 4 31-0.00000000E+00 6.23079896E-07 7.80512305E-07-0.00000000E+00-2.39169995E-06
 4 32-3.12288917E-06 2.61709931E-06-6.38287995E-06-1.29449831E-05-1.65186430E-07
 4 33-0.00000000E+00-7.48626079E-06-2.45149690E-07-0.00000000E+00 2.51777553E-06
 4 34-2.00859820E-07-0.00000000E+00-8.93951322E-07 3.16684060E-07 5.77267262E-07
 4 35-9.13325929E-09-0.00000000E+00-0.00000000E+00-1.15292947E-06 1.54718829E-06
 4 36-3.94258815E-07 5.71460118E-08-0.00000000E+00-0.00000000E+00-2.35985062E-06
 4 37 8.94444935E-09-0.00000000E+00-1.56771102E-08-0.00000000E+00 1.26054545E-06
 4 38-0.00000000E+00 1.90552639E-06 3.67687218E-09-0.00000000E+00
 5  1-0.00000000E+00-0.00000000E+00-0.00000000E+00-0.00000000E+00-0.00000000E+00
 5  2-0.00000000E+00-0.00000000E+00-0.00000000E+00-0.00000000E+00 9.99963961E-01
 5  3-0.00000000E+00-0.00000000E+00 8.13505644E-03-0.00000000E+00-0.00000000E+00
 5  4 1.57667955E-03-0.00000000E+00-0.00000000E+00 1.52739327E-03-0.00000000E+00
 5  5-0.00000000E+00-2.57734683E-04-0.00000000E+00-0.00000000E+00 1.60740070E-05
 5  6-0.00000000E+00-0.00000000E+00-0.00000000E+00-0.00000000E+00-0.00000000E+00
 5  7-0.00000000E+00-0.00000000E+00-0.00000000E+00-0.00000000E+00-0.00000000E+00
 5  8-1.94115286E-11-0.00000000E+00-0.00000000E+00-0.00000000E+00-0.00000000E+00
 5  9-0.00000000E+00-0.00000000E+00-0.00000000E+00-0.00000000E+00-0.00000000E+00
 5 10-0.00000000E+00-0.00000000E+00-0.00000000E+00-0.00000000E+00-0.00000000E+00
 5 11-0.00000000E+00-9.24286316E-05-0.00000000E+00 6.20030072E-05-0.00000000E+00
 5 12 6.20030147E-05-0.00000000E+00-0.00000000E+00-0.00000000E+00-0.00000000E+00
 5 13-0.00000000E+00 2.16674406E-05-0.00000000E+00-1.45349621E-05-0.00000000E+00
 5 14-1.45349600E-05-0.00000000E+00-0.00000000E+00-0.00000000E+00-0.00000000E+00
 5 15-0.00000000E+00-0.00000000E+00-0.00000000E+00-2.51132884E-06-0.00000000E+00
 5 16-0.00000000E+00-0.00000000E+00-0.00000000E+00-0.00000000E+00-0.00000000E+00
 5 17-0.00000000E+00-0.00000000E+00 3.36930138E-06-0.00000000E+00-0.00000000E+00
 5 18-0.00000000E+00-0.00000000E+00-0.00000000E+00-0.00000000E+00-0.00000000E+00
 5 19-3.09503947E-07-0.00000000E+00-0.00000000E+00-3.52455820E-06-0.00000000E+00
 5 20-0.00000000E+00 9.02412766E-07-0.00000000E+00-0.00000000E+00-0.00000000E+00
 5 21-0.00000000E+00-3.62738706E-08 6.28373383E-08-0.00000000E+00-0.00000000E+00
 5 22-0.00000000E+00-0.00000000E+00-1.31960918E-06 2.28561727E-06-0.00000000E+00
 5 23-0.00000000E+00 4.33650188E-07-0.00000000E+00-3.75615808E-08-0.00000000E+00
 5 24-5.44241199E-07-0.00000000E+00-0.00000000E+00 5.06699712E-07-0.00000000E+00
 5 25-0.00000000E+00-0.00000000E+00-0.00000000E+00-0.00000000E+00-0.00000000E+00
 5 26-3.09508490E-07-0.00000000E+00-0.00000000E+00-3.52455585E-06-0.00000000E+00
 5 27-0.00000000E+00 9.02414790E-07-0.00000000E+00-0.00000000E+00-0.00000000E+00
 5 28-0.00000000E+00-3.62780155E-08-6.28395087E-08-0.00000000E+00-0.00000000E+00
 5 29-0.00000000E+00-0.00000000E+00-1.31960815E-06-2.28561674E-06-0.00000000E+00
 5 30-0.00000000E+00 4.33648141E-07-0.00000000E+00-3.75586994E-08-0.00000000E+00
 5 31-5.44241334E-07-0.00000000E+00-0.00000000E+00-5.06699322E-07-0.00000000E+00
 5 32-0.00000000E+00-0.00000000E+00-0.00000000E+00-0.00000000E+00-0.00000000E+00
 5 33-3.09501245E-07-0.00000000E+00-0.00000000E+00-3.52460166E-06-0.00000000E+00
 5 34-0.00000000E+00 9.02449993E-07-0.00000000E+00-0.00000000E+00-0.00000000E+00
 5 35-0.00000000E+00 7.25476020E-08-0.00000000E+00-0.00000000E+00-0.00000000E+00
 5 36-0.00000000E+00-0.00000000E+00 2.63919015E-06-0.00000000E+00-0.00000000E+00
 5 37-0.00000000E+00 4.33636725E-07-0.00000000E+00-7.97577032E-07-0.00000000E+00
 5 38 2.15792315E-07-0.00000000E+00-0.00000000E+00-0.00000000E+00
 6  1-1.39547707E-08-4.10894476E-08-2.17755183E-07-4.53593284E-07 3.24390970E-08
 6  2-3.81952005E-08 8.26124625E-08-3.71508168E-05 1.03706494E-05-0.00000000E+00
 6  3-5.12621180E-04 1.43098717E-04-0.00000000E+00 4.95661624E-03-1.38364419E-03
 6  4-0.00000000E+00 3.69448479E-03-1.03131892E-03-0.00000000E+00-2.65351718E-04
 6  5 7.40731794E-05-0.00000000E+00 1.27191466E-04-3.55056423E-05-0.00000000E+00
 6  6-1.96179342E-05 1.96017462E-05 1.61883460E-08-6.32095854E-06-0.00000000E+00
 6  7-0.00000000E+00-1.74365817E-05 1.74189141E-05 1.76719351E-08-5.61760126E-06
 6  8-0.00000000E+00-0.00000000E+00 1.27608699E-05-1.27639472E-05 3.07708546E-09
 6  9 4.11377601E-06-0.00000000E+00-0.00000000E+00-5.79015748E-04 5.78930358E-04
 6 10 8.53887026E-08-1.86623711E-04-0.00000000E+00-0.00000000E+00-9.92342424E-06
 6 11 2.76834119E-06-0.00000000E+00 1.23804520E-06-0.00000000E+00-4.42642756E-06
 6 12-0.00000000E+00 1.77400983E-05-4.95216465E-06-0.00000000E+00 2.92018495E-05
 6 13-8.14641963E-06-0.00000000E+00-3.64318235E-06-0.00000000E+00 1.30254604E-05
 6 14-0.00000000E+00-5.22038527E-05 1.45727512E-05-0.00000000E+00 1.93826276E-05
 6 15 5.04277017E-06 2.90869214E-09-3.64075888E-06-0.00000000E+00 6.66673119E-06
 6 16-0.00000000E+00-0.00000000E+00-0.00000000E+00-2.14505178E-05-1.25973960E-05
 6 17 1.25922862E-05-0.00000000E+00-0.00000000E+00-4.05976787E-06-5.68981478E-01
 6 18 5.87689512E-04-2.53193273E-02-2.66840693E-03-2.31226750E-04 3.92448854E-04
 6 19-0.00000000E+00 1.54442233E-04-2.33742266E-04-0.00000000E+00-2.65419741E-04
 6 20 3.78135442E-04-0.00000000E+00-9.38360637E-06 6.43942545E-06 2.94418091E-06
 6 21-4.75547104E-06-0.00000000E+00-0.00000000E+00 2.69679299E-05-2.12940865E-05
 6 22-5.67384334E-06 1.64421673E-05-0.00000000E+00-0.00000000E+00 4.80393256E-06
 6 23 2.77973372E-06-0.00000000E+00-7.60804100E-07-0.00000000E+00-7.97605853E-06
 6 24-0.00000000E+00 1.53090666E-06-2.96860004E-06-0.00000000E+00-1.98011439E-01
 6 25 2.04524310E-04-8.81138784E-03-9.28659721E-04-8.40796726E-05-1.34490216E-04
 6 26-0.00000000E+00 6.88931312E-05 7.25940741E-05-0.00000000E+00-1.28969842E-04
 6 27-1.10446861E-04-0.00000000E+00-7.56776804E-06 6.54050723E-06 1.02726081E-06
 6 28-1.21219343E-06-0.00000000E+00-0.00000000E+00 2.17540679E-05-1.97714095E-05
 6 29-1.98265841E-06 2.52171679E-06-0.00000000E+00-0.00000000E+00 1.75203721E-06
 6 30-2.17396882E-06-0.00000000E+00 1.80181043E-06-0.00000000E+00-2.74094403E-06
 6 31-0.00000000E+00 3.90339454E-07 1.11487480E-06-0.00000000E+00 7.67384247E-01
 6 32-7.92607551E-04 3.41481288E-02 3.59877982E-03-6.14315351E-04 1.54622441E-06
 6 33-0.00000000E+00 3.77180300E-04-6.48633111E-06-0.00000000E+00-6.20701937E-04
 6 34 1.56752198E-05-0.00000000E+00-8.16452667E-06 1.21257875E-05-3.96126081E-06
 6 35-2.12645114E-06-0.00000000E+00-0.00000000E+00 2.90941049E-05-3.67172031E-05
 6 36 7.62309824E-06 6.11366576E-06-0.00000000E+00-0.00000000E+00-1.01474038E-05
 6 37 3.96411491E-07-0.00000000E+00-5.92752220E-07-0.00000000E+00 9.11291964E-06
 6 38-0.00000000E+00 4.50125121E-06 6.09103956E-08-0.00000000E+00
 7  1 1.21725171E-08 3.58717178E-08 1.89732748E-07 3.95265735E-07-2.80881461E-08
 7  2 3.32546254E-08-7.19687381E-08 1.03706760E-05 3.71507001E-05 0.00000000E+00
 7  3 1.43098694E-04 5.12621197E-04 0.00000000E+00-1.38364379E-03-4.95661606E-03
 7  4 0.00000000E+00-1.03131859E-03-3.69448464E-03 0.00000000E+00 7.40731580E-05
 7  5 2.65351695E-04 0.00000000E+00-3.55056127E-05-1.27191458E-04 0.00000000E+00
 7  6 5.48112372E-06-5.46710592E-06-1.40178254E-08-2.26434529E-05 0.00000000E+00
 7  7 0.00000000E+00 4.87266520E-06-4.85731368E-06-1.53527346E-08-2.01237907E-05
 7  8 0.00000000E+00 0.00000000E+00-3.56129987E-06 3.56398838E-06-2.68842147E-09
 7  9 1.47367803E-05 0.00000000E+00 0.00000000E+00 1.61658078E-04-1.61583678E-04
 7 10-7.44000167E-08-6.68540542E-04 0.00000000E+00 0.00000000E+00 2.77391929E-06
 7 11 9.91699934E-06 0.00000000E+00 4.43503994E-06 0.00000000E+00 1.23054887E-06
 7 12 0.00000000E+00-4.95215213E-06-1.77400907E-05 0.00000000E+00-8.16296680E-06
 7 13-2.91828418E-05 0.00000000E+00-1.30509518E-05 0.00000000E+00-3.62096519E-06
 7 14 0.00000000E+00 1.45727344E-05 5.22038426E-05 0.00000000E+00-5.41132030E-06
 7 15-1.40833926E-06-2.53533272E-09-1.30422572E-05 0.00000000E+00 2.38821703E-05
 7 16 0.00000000E+00 0.00000000E+00 0.00000000E+00 5.98754884E-06 3.51808533E-06
 7 17-3.51363175E-06 0.00000000E+00 0.00000000E+00-1.45432695E-05-5.57485145E-01
 7 18 5.75808704E-04-2.48077473E-02-2.61441616E-03-2.19584283E-04 3.88548271E-04
 7 19 0.00000000E+00 1.22080233E-04-2.45919945E-04 0.00000000E+00-1.89392235E-04
 7 20 4.11340398E-04 0.00000000E+00-8.85913466E-07-1.99124348E-06 2.87715695E-06
 7 21-1.01953516E-05 0.00000000E+00 0.00000000E+00 2.53690643E-06 2.99927058E-06
 7 22-5.53617701E-06 3.20277171E-05 0.00000000E+00 0.00000000E+00 4.55131371E-06
 7 23 3.94007190E-07 0.00000000E+00 2.22244276E-06 0.00000000E+00-7.88143879E-06
 7 24 0.00000000E+00 1.77521068E-06-2.75105888E-06 0.00000000E+00 7.71437452E-01
 7 25-7.96800476E-04 3.43284940E-02 3.61786434E-03 3.07539266E-04 5.35534478E-04
 7 26 0.00000000E+00-1.84381573E-04-3.31359665E-04 0.00000000E+00 2.99410968E-04
 7 27 5.47597876E-04 0.00000000E+00 5.61896036E-06-1.62914585E-06-3.98981452E-06
 7 28-1.11825445E-05 0.00000000E+00 0.00000000E+00-1.61406627E-05 8.45397171E-06
 7 29 7.68669100E-06 3.59063573E-05 0.00000000E+00 0.00000000E+00-6.38143966E-06
 7 30 1.77601794E-06 0.00000000E+00 1.50672176E-06 0.00000000E+00 1.08722778E-05
 7 31 0.00000000E+00-2.31067809E-06-3.88949987E-06 0.00000000E+00-2.14293273E-01
 7 32 2.21334871E-04-9.53591930E-03-1.00494098E-03 1.71549791E-04 5.53903865E-06
 7 33 0.00000000E+00-1.05333167E-04-2.32359785E-05 0.00000000E+00 1.73345072E-04
 7 34 5.61532986E-05 0.00000000E+00 2.28110400E-06-3.38487848E-06 1.10377448E-06
 7 35-7.61757846E-06 0.00000000E+00 0.00000000E+00-8.12859725E-06 1.02499992E-05
 7 36-2.12140194E-06 2.19009361E-05 0.00000000E+00 0.00000000E+00 2.83335751E-06
 7 37 1.42009408E-06 0.00000000E+00-2.12341579E-06 0.00000000E+00-2.54397310E-06
 7 38 0.00000000E+00-1.25737490E-06 2.18159655E-07 0.00000000E+00
 8  1-6.03683779E-05-1.77972052E-04-9.40433245E-04-1.95894455E-03 1.39798899E-04
 8  2-1.64921928E-04 3.56668727E-04 1.06583385E-08 5.09662415E-09-0.00000000E+00
 8  3 1.47567925E-07 7.02981409E-08-0.00000000E+00-1.42697497E-06-6.79834045E-07
 8  4-0.00000000E+00-1.06361825E-06-5.06764221E-07-0.00000000E+00 7.64062309E-08
 8  5 3.63935197E-08-0.00000000E+00-3.65997921E-08-1.73714243E-08-0.00000000E+00
 8  6-3.49212871E-05-3.49326313E-05 6.98539184E-05-3.05614702E-09-0.00000000E+00
 8  7-0.00000000E+00-3.80937149E-05-3.81037654E-05 7.61974803E-05-2.74221874E-09
 8  8-0.00000000E+00-0.00000000E+00-6.63487059E-06-6.62752564E-06 1.32623962E-05
 8  9 2.01398009E-09-0.00000000E+00-0.00000000E+00-1.84217630E-04-1.84551014E-04
 8 10 3.68768644E-04-9.16807122E-08-0.00000000E+00-0.00000000E+00-2.76966643E-05
 8 11 1.35408880E-09-0.00000000E+00 6.06233206E-10-0.00000000E+00 3.71640721E-05
 8 12-0.00000000E+00-5.09617557E-09-2.42293391E-09-0.00000000E+00 8.20955258E-05
 8 13-3.98596682E-09-0.00000000E+00-1.78327639E-09-0.00000000E+00-1.10157733E-04
 8 14-0.00000000E+00 1.50290526E-08 7.13101204E-09-0.00000000E+00 4.70779319E-06
 8 15 4.71192929E-06 1.25690284E-05-1.78287445E-09-0.00000000E+00 3.26404219E-09
 8 16-0.00000000E+00-0.00000000E+00-0.00000000E+00 2.76606707E-06-1.10358714E-05
 8 17-1.10431369E-05-0.00000000E+00-0.00000000E+00-1.98719505E-09 5.63300279E-01
 8 18-5.66827758E-04 2.50661519E-02 2.46613402E-03 2.29975418E-04-3.98325688E-04
 8 19-0.00000000E+00-1.56593326E-04 2.71212748E-04-0.00000000E+00 2.75307311E-04
 8 20-4.76810623E-04-0.00000000E+00-3.82394905E-06-1.08252120E-05 1.46491610E-05
 8 21 6.99641678E-06-0.00000000E+00-0.00000000E+00 1.07609935E-05 3.73112486E-05
 8 22-4.80722421E-05-2.65363295E-05-0.00000000E+00-0.00000000E+00 7.02023688E-08
 8 23-2.98565738E-06-0.00000000E+00-1.33429316E-06-0.00000000E+00 2.98875268E-06
 8 24-0.00000000E+00-3.08293904E-06 5.33997287E-06-0.00000000E+00 5.63482513E-01
 8 25-5.67015970E-04 2.50742612E-02 2.46698867E-03 2.30047682E-04 3.98452328E-04
 8 26-0.00000000E+00-1.56635346E-04-2.71291913E-04-0.00000000E+00 2.75374355E-04
 8 27 4.76942135E-04-0.00000000E+00-3.82305536E-06-1.08251657E-05 1.46482210E-05
 8 28-6.99935344E-06-0.00000000E+00-0.00000000E+00 1.07584289E-05 3.73120044E-05
 8 29-4.80704334E-05 2.65456530E-05-0.00000000E+00-0.00000000E+00 6.87011396E-08
 8 30 2.98595628E-06-0.00000000E+00 1.33480490E-06-0.00000000E+00 2.99132483E-06
 8 31-0.00000000E+00-3.08349708E-06-5.34088564E-06-0.00000000E+00 5.63060054E-01
 8 32-5.66579596E-04 2.50554621E-02 2.46500742E-03-4.59755593E-04 7.51707747E-10
 8 33-0.00000000E+00 3.13055676E-04-3.18266555E-09-0.00000000E+00-5.50389493E-04
 8 34 7.67600314E-09-0.00000000E+00-1.43196494E-05-3.30754410E-07 1.46504038E-05
 8 35-1.04371245E-09-0.00000000E+00-0.00000000E+00 5.05668297E-05-2.49219131E-06
 8 36-4.80746384E-05 2.99031550E-09-0.00000000E+00-0.00000000E+00-5.09692805E-06
 8 37 1.92628317E-10-0.00000000E+00-2.88226217E-10-0.00000000E+00 6.73675814E-07
 8 38-0.00000000E+00 6.16457075E-06 2.97882099E-11-0.00000000E+00
 9  1-6.82842713E-04-5.65133451E-03 9.97409846E-01-1.05625166E-02-6.31421808E-03
 9  2-8.65301198E-03-3.35001426E-05 0.00000000E+00-1.23023262E-11 0.00000000E+00
 9  3-2.77249814E-11 0.00000000E+00 0.00000000E+00-6.27422858E-10 0.00000000E+00
 9  4 0.00000000E+00-6.63292021E-10 3.17016454E-11 0.00000000E+00 3.19102252E-11
 9  5 0.00000000E+00 0.00000000E+00-2.91534988E-11 0.00000000E+00 0.00000000E+00
 9  6-3.29340132E-03-3.29340119E-03 6.58680251E-03 0.00000000E+00 0.00000000E+00
 9  7 0.00000000E+00-8.92775736E-04-8.92775616E-04 1.78555135E-03 0.00000000E+00
 9  8 0.00000000E+00 0.00000000E+00 8.17531229E-05 8.17531989E-05-1.63506322E-04
 9  9 0.00000000E+00 0.00000000E+00 0.00000000E+00 7.35660863E-05 7.35661044E-05
 9 10-1.47132191E-04 0.00000000E+00 0.00000000E+00 0.00000000E+00-1.15485287E-04
 9 11 0.00000000E+00 0.00000000E+00 0.00000000E+00 0.00000000E+00 1.54939776E-04
 9 12 0.00000000E+00 0.00000000E+00 0.00000000E+00 0.00000000E+00-3.49300298E-04
 9 13 0.00000000E+00 0.00000000E+00 0.00000000E+00 0.00000000E+00 4.68635548E-04
 9 14 0.00000000E+00-2.26122898E-11 0.00000000E+00 0.00000000E+00-2.80772857E-05
 9 15-2.80772671E-05-7.48727560E-05 0.00000000E+00 0.00000000E+00 0.00000000E+00
 9 16 0.00000000E+00 0.00000000E+00 0.00000000E+00-1.64403863E-05 6.57615116E-05
 9 17 6.57614789E-05 0.00000000E+00 0.00000000E+00 0.00000000E+00-7.46300239E-05
 9 18 1.39420435E-03 2.07810675E-04 1.22272517E-03 4.56516910E-04-7.90710470E-04
 9 19 0.00000000E+00 8.51333997E-04-1.47455375E-03 0.00000000E+00 4.98406058E-04
 9 20-8.63264767E-04 0.00000000E+00-1.79226887E-05 6.99421072E-05-5.20194184E-05
 9 21-8.78648192E-05 0.00000000E+00 0.00000000E+00-6.00439481E-05 3.59570728E-04
 9 22-2.99526780E-04-4.19614588E-04 0.00000000E+00 0.00000000E+00-3.57316048E-05
 9 23-3.14462934E-05 0.00000000E+00-1.40632028E-05 0.00000000E+00 8.04166258E-05
 9 24 0.00000000E+00-3.24776474E-05 5.62528326E-05 0.00000000E+00-7.46300532E-05
 9 25 1.39420431E-03 2.07810689E-04 1.22272525E-03 4.56516906E-04 7.90710468E-04
 9 26 0.00000000E+00 8.51333997E-04 1.47455374E-03 0.00000000E+00 4.98406067E-04
 9 27 8.63264791E-04 0.00000000E+00-1.79226901E-05 6.99421098E-05-5.20194197E-05
 9 28 8.78648157E-05 0.00000000E+00 0.00000000E+00-6.00439500E-05 3.59570734E-04
 9 29-2.99526784E-04 4.19614595E-04 0.00000000E+00 0.00000000E+00-3.57316289E-05
 9 30 3.14462965E-05 0.00000000E+00 1.40632200E-05 0.00000000E+00 8.04166228E-05
 9 31 0.00000000E+00-3.24776121E-05-5.62528539E-05 0.00000000E+00-7.46300899E-05
 9 32 1.39420430E-03 2.07810676E-04 1.22272537E-03-9.13033833E-04 0.00000000E+00
 9 33 0.00000000E+00-1.70266805E-03 0.00000000E+00 0.00000000E+00-9.96812332E-04
 9 34 0.00000000E+00 0.00000000E+00 1.13874479E-04-6.18550600E-05-5.20194187E-05
 9 35 0.00000000E+00 0.00000000E+00 0.00000000E+00 5.69378123E-04-2.69851305E-04
 9 36-2.99526817E-04 0.00000000E+00 0.00000000E+00 0.00000000E+00-9.01982184E-05
 9 37 0.00000000E+00 0.00000000E+00 0.00000000E+00 0.00000000E+00 5.60584589E-05
 9 38 0.00000000E+00 6.49551498E-05 0.00000000E+00 0.00000000E+00
10  1-1.61761458E-11 0.00000000E+00 0.00000000E+00 1.64589162E-10 7.47470039E-11
10  2-7.56164315E-11-9.43652189E-11-7.33408145E-03 3.29195504E-03 0.00000000E+00
10  3 9.09723579E-01-4.08335950E-01 0.00000000E+00 1.17213463E-02-5.26121127E-03
10  4 0.00000000E+00-2.73345470E-03 1.22692979E-03 0.00000000E+00-1.20648451E-02
10  5 5.41539229E-03 0.00000000E+00 4.77549462E-04-2.14351672E-04 0.00000000E+00
10  6-5.94472286E-03 5.94472283E-03 2.44767200E-11-3.08112386E-03 0.00000000E+00
10  7 0.00000000E+00 1.00232749E-03-1.00232755E-03 5.29705915E-11 5.19501954E-04