 !#############################################################################
 !                   D_3h RHF GEOMETRY OPTIMIZATION AND HESSIAN TEMPLATE
 ! ---------------------------------------------------------------------------
 ! Replace the symmetry-correct coordinates, should only be two atoms.  
 ! The hydrogen or fluorine should have only one non-zero x,y,z coordinate.
 ! 
 ! Basis set?   gbasis=ccd for 2nd row, 
 !                         cct 3rd/4th,
 !                   SPKrTZP for heavy,
 !                   SPKrTZC beyond 4th
 ! 
 !#############################################################################
 $system kdiag=3 mwords=500 memddi=3000 parall=.t. $end
 $contrl runtyp=energy ispher=1 $end
 $contrl icut=9 itol=20 inttyp=rysquad qmttol=1.0d-05 nosym=1 $end
 $contrl scftyp=mcscf  mult=3 maxit=200 icharg=0 mplevl=2 $end
 $scf    npunch=2 conv=1.0d-06 dirscf=.t. $end
 $force  method=seminum $end
 $trans  dirtrf=.t. $end
 $statpt hssend=.t. $end
 $basis  gbasis=SPKrTZP $end
 !#############################################################################
 !
 !                       TURN ON THIS SECTION IF HEAVY ATOM
 !
 !#############################################################################
 !
 $contrl relwfn=LUT-IOTC $end
 $scf  diis=.t. soscf=.f. ethrsh=10.0 $end
 -guess iorder(43)=44 iorder(44)=43 $end
 $gmcpt nsolut=100 $end
 !
 !#############################################################################
 !
 ! TURN ON THIS SECTION IF GMCPT, CHANGE runtyp=energy, scftyp=mcscf, change nosym=1
 !
 !#############################################################################
 $guess  guess=moread norb=369 purify=.t. norder=1 $end
 $mcscf  cistep=gmcci fullnr=.t. finci=mos
         acurcy=1.d-6 maxit=100 $end
 $mrmp   mrpt=gmcpt rdvecs=.f. $end
 $gmcpt  nmofzc=19 nmodoc=24 nmoact=8 nelact=10 stsym(1)=A
         reftyp=ormas nspace=1 mstart(1)=44 mine(1)=10 maxe(1)=10
         kstate(1)=1,1,1,1,1,1,1,1,1,1,1,1,1,1,1,1,1
         wstate(1)=3,1,1,1,1,1,1,1,1,1,1,1,1,3,3,3,3
         iwgt=0 thrwgt=-1.0 krot=.f. kszdoe=.f. knospn=.t.
         thrde=-1.0 edshft=0.02 maxbas=8000 $end
 $transt $end
 !#############################################################################
 !
 !             TURN OFF THIS SECTION IF temp.inp, add C1
 !
 !    IF SOC, $transt $end, turn knospn=.t., restart from gmcpt states calc
 !
 !#############################################################################
Semi-canonical MOs --- generated at Fri Apr 12 12:03:17 2024
 $VEC   
 1  1 9.97431865E-01 1.19193656E-02 3.41508326E-03-7.21951165E-03 2.28446424E-03
 1  2-3.52970847E-03 7.06195761E-04-7.92568920E-05-4.39556303E-11 1.21666740E-11
 1  3 0.00000000E+00 2.38690318E-11-2.18196785E-11-1.83608791E-11 1.06733914E-10
 1  4 0.00000000E+00 1.12145614E-11-1.99871492E-10-1.63197338E-10-4.71769540E-11
 1  5 5.62760504E-10 3.00936473E-10 0.00000000E+00-3.28274612E-10-1.35107197E-09
 1  6 1.17087248E-09 4.34137093E-06 4.34122582E-06-8.68259675E-06 6.02516812E-11
 1  7 0.00000000E+00 0.00000000E+00-1.94410160E-05-1.94408539E-05 3.88818699E-05
 1  8 3.85523455E-11 0.00000000E+00 0.00000000E+00 1.37505743E-04 1.37505028E-04
 1  9-2.75010771E-04-2.31796341E-10 0.00000000E+00 0.00000000E+00-5.08306390E-05
 1 10-5.08281602E-05 1.01658799E-04 3.09416949E-10 0.00000000E+00 0.00000000E+00
 1 11 1.60475956E-05 0.00000000E+00 0.00000000E+00 0.00000000E+00 0.00000000E+00
 1 12-2.15300905E-05 0.00000000E+00-1.67127292E-11 0.00000000E+00 0.00000000E+00
 1 13-1.12881630E-04 0.00000000E+00 0.00000000E+00 0.00000000E+00 0.00000000E+00
 1 14 1.51446676E-04 0.00000000E+00-7.72076262E-11 0.00000000E+00 0.00000000E+00
 1 15-1.77301687E-05-1.77301715E-05-4.72805411E-05 0.00000000E+00 0.00000000E+00
 1 16 0.00000000E+00 0.00000000E+00 0.00000000E+00 0.00000000E+00-1.03818015E-05
 1 17 4.15269727E-05 4.15269776E-05 0.00000000E+00 0.00000000E+00 0.00000000E+00
 1 18-2.98418297E-05-1.94241683E-04 5.33284533E-04 3.70758158E-05-1.45989005E-05
 1 19 2.52860896E-05 1.31396390E-11 1.12060880E-04-1.94095291E-04 3.06379838E-11
 1 20-1.06045066E-04 1.83675592E-04-2.75865196E-11 1.56382777E-06-5.22882066E-06
 1 21 3.66499289E-06 6.79259731E-06 0.00000000E+00 0.00000000E+00-2.59467901E-05
 1 22 1.42144095E-04-1.16197304E-04-1.68089751E-04 0.00000000E+00 0.00000000E+00
 1 23-3.73092532E-05-2.80895987E-05 0.00000000E+00-1.25620255E-05 0.00000000E+00
 1 24 7.90664582E-05 0.00000000E+00-2.90108424E-05 5.02481768E-05 0.00000000E+00
 1 25-2.98419314E-05-1.94241433E-04 5.33286109E-04 3.70729989E-05-1.45987312E-05
 1 26-2.52860082E-05 1.27432689E-11 1.12061113E-04 1.94095406E-04 3.14335602E-11
 1 27-1.06047403E-04-1.83677222E-04-2.74542784E-11 1.56380882E-06-5.22880708E-06
 1 28 3.66499826E-06-6.79259730E-06 0.00000000E+00 0.00000000E+00-2.59468246E-05
 1 29 1.42144268E-04-1.16197444E-04 1.68089977E-04 0.00000000E+00 0.00000000E+00
 1 30-3.73092711E-05 2.80895993E-05 0.00000000E+00 1.25620421E-05 0.00000000E+00
 1 31 7.90664978E-05 0.00000000E+00-2.90108580E-05-5.02481943E-05 0.00000000E+00
 1 32-2.98418307E-05-1.94240641E-04 5.33285923E-04 3.70748124E-05 2.91975978E-05
 1 33-2.60622197E-11 1.22443526E-11-2.24121623E-04-3.71051115E-11 3.17636143E-11
 1 34 2.12092191E-04 9.57225307E-11-2.70386990E-11-8.62481261E-06 4.95993760E-06
 1 35 3.66487501E-06 0.00000000E+00 0.00000000E+00 0.00000000E+00 2.26188436E-04
 1 36-1.09991184E-04-1.16197252E-04 1.74109397E-11 0.00000000E+00 0.00000000E+00
 1 37-8.59617165E-05 0.00000000E+00 0.00000000E+00 0.00000000E+00 0.00000000E+00
 1 38 5.73082591E-05 0.00000000E+00 5.80214857E-05 0.00000000E+00 0.00000000E+00
 1 39-4.28679303E-07 1.67871635E-05 5.01195563E-06-3.68554614E-04-1.26210381E-06
 1 40 2.18600325E-06 1.07983613E-11 2.94973910E-05-5.10911314E-05 1.29237848E-11
 1 41-5.33822807E-05 9.24600925E-05 2.66640160E-11-1.15299405E-06 5.82920465E-06
 1 42-4.67621060E-06-6.98237641E-06 0.00000000E+00 0.00000000E+00-4.20611307E-06
 1 43 1.99745891E-05-1.57684760E-05-2.41804454E-05 0.00000000E+00 0.00000000E+00
 1 44-6.67193078E-06-4.75889687E-06 0.00000000E+00-2.12822864E-06 0.00000000E+00
 1 45 1.38662064E-05 0.00000000E+00-4.91487196E-06 8.51295878E-06 0.00000000E+00
 1 46-4.28694769E-07 1.67872911E-05 5.01188183E-06-3.68556305E-04-1.26189435E-06
 1 47-2.18611022E-06 1.03707589E-11 2.94975861E-05 5.10910246E-05 1.18416483E-11
 1 48-5.33823796E-05-9.24606373E-05 2.59704467E-11-1.15299187E-06 5.82920684E-06
 1 49-4.67621497E-06 6.98238754E-06 0.00000000E+00 0.00000000E+00-4.20609144E-06
 1 50 1.99745637E-05-1.57684722E-05 2.41804518E-05 0.00000000E+00 0.00000000E+00
 1 51-6.67192528E-06 4.75889979E-06 0.00000000E+00 2.12823536E-06 0.00000000E+00
 1 52 1.38662087E-05 0.00000000E+00-4.91488161E-06-8.51296941E-06 0.00000000E+00
 1 53-4.28621955E-07 1.67870424E-05 5.01139258E-06-3.68555775E-04 2.52395008E-06
 1 54-2.28761989E-11 1.01012964E-11-5.89944613E-05-2.38641478E-11 1.15945299E-11
 1 55 1.06764630E-04-4.68307367E-11 2.60858394E-11 9.32045456E-06-4.64424578E-06
 1 56-4.67620878E-06 0.00000000E+00 0.00000000E+00 0.00000000E+00 3.20643535E-05
 1 57-1.62960167E-05-1.57683368E-05 0.00000000E+00 0.00000000E+00 0.00000000E+00
 1 58-1.49143619E-05 0.00000000E+00 0.00000000E+00 0.00000000E+00 0.00000000E+00
 1 59 1.01799221E-05 0.00000000E+00 9.82979410E-06 0.00000000E+00 0.00000000E+00
 1 60-4.45700796E-05-2.54004977E-04 7.73043719E-04-1.17370747E-06 1.37050243E-11
 1 61-3.73837418E-11-2.97273113E-05 0.00000000E+00-4.74231085E-11 3.10580716E-04
 1 62 5.69082677E-11 0.00000000E+00-2.03686282E-04-2.48477501E-06-2.48467325E-06
 1 63 4.96944826E-06 0.00000000E+00-4.02247903E-11 0.00000000E+00-1.76003869E-04
 1 64-1.76003939E-04 3.52007808E-04 1.59963016E-11 1.01286611E-10 0.00000000E+00
 1 65-1.58546487E-07 0.00000000E+00 9.10621258E-05 0.00000000E+00-6.10863017E-05
 1 66 2.12639464E-07-6.10863604E-05 7.43576195E-11 0.00000000E+00 0.00000000E+00
 1 67-4.45701041E-05-2.54004674E-04 7.73044393E-04-1.17564132E-06 1.36073315E-11
 1 68-3.79093824E-11 2.97272793E-05 0.00000000E+00-4.88579911E-11-3.10581065E-04
 1 69 6.05339167E-11 0.00000000E+00 2.03688260E-04-2.48476218E-06-2.48466110E-06
 1 70 4.96942328E-06 0.00000000E+00 4.02378271E-11 0.00000000E+00-1.76003830E-04
 1 71-1.76003898E-04 3.52007728E-04 1.58601568E-11-1.03864607E-10 1.21223454E-11
 1 72-1.58543352E-07 0.00000000E+00-9.10622231E-05 0.00000000E+00 6.10863672E-05
 1 73 2.12636802E-07 6.10864254E-05 7.27872100E-11 0.00000000E+00 0.00000000E+00
 1 74 6.88459882E-07 2.35154883E-05-8.74279111E-05-3.79668629E-04 1.65196655E-11
 1 75-2.45306126E-11-3.03695016E-06 0.00000000E+00-2.93521665E-11 4.82676325E-05
 1 76 4.62324398E-11-2.35893779E-11-1.23894904E-04-3.45124372E-06-3.45123221E-06
 1 77 6.90247593E-06 0.00000000E+00 0.00000000E+00 0.00000000E+00-2.07177916E-05
 1 78-2.07177575E-05 4.14355491E-05 0.00000000E+00 2.61899890E-11 0.00000000E+00
 1 79-1.35593366E-07 0.00000000E+00 1.62318074E-05 0.00000000E+00-1.08886318E-05
 1 80 1.81917895E-07-1.08886230E-05 0.00000000E+00 0.00000000E+00 0.00000000E+00
 1 81 6.88399979E-07 2.35155201E-05-8.74269510E-05-3.79670718E-04 1.69521030E-11
 1 82-2.56866096E-11 3.03699898E-06 0.00000000E+00-3.09376986E-11-4.82678804E-05
 1 83 4.59665456E-11-2.45132028E-11 1.23895496E-04-3.45126477E-06-3.45125303E-06
 1 84 6.90251780E-06 0.00000000E+00 0.00000000E+00 0.00000000E+00-2.07177789E-05
 1 85-2.07177441E-05 4.14355230E-05 0.00000000E+00-2.56487922E-11 0.00000000E+00
 1 86-1.35593211E-07 0.00000000E+00-1.62318135E-05 0.00000000E+00 1.08886350E-05
 1 87 1.81918086E-07 1.08886280E-05 0.00000000E+00 0.00000000E+00 0.00000000E+00
 2  1-3.20540292E-01 1.04839026E+00 2.75034442E-02-1.42812299E-02 4.45343262E-03
 2  2-1.08724585E-02 2.48086970E-03-2.52102619E-04-1.74547057E-10-6.39787178E-11
 2  3-8.03905718E-11-1.18017522E-10 0.00000000E+00 0.00000000E+00-3.77866902E-10
 2  4-7.27823216E-11 4.18639432E-11 4.12682826E-10 2.18558935E-10-3.84047492E-11
 2  5-7.08262811E-10-4.42926490E-10 6.38985826E-11 3.46652778E-10 4.79116466E-11
 2  6-2.06924699E-09-1.75620657E-04-1.75619892E-04 3.51240549E-04 0.00000000E+00
 2  7 0.00000000E+00 0.00000000E+00-2.44410527E-04-2.44410460E-04 4.88820987E-04
 2  8-1.62779600E-11 0.00000000E+00 0.00000000E+00 7.08278684E-04 7.08278572E-04
 2  9-1.41655726E-03 1.56771223E-10 2.24844962E-11 0.00000000E+00-5.81797284E-04
 2 10-5.81796601E-04 1.16359388E-03-4.74401026E-11-3.53068498E-11 0.00000000E+00
 2 11 7.05472517E-05 0.00000000E+00 0.00000000E+00 0.00000000E+00 0.00000000E+00
 2 12-9.46490886E-05 0.00000000E+00 1.73276188E-11 0.00000000E+00 0.00000000E+00
 2 13-4.13003450E-04 0.00000000E+00-1.93903561E-11 0.00000000E+00 1.31835929E-11
 2 14 5.54102236E-04 1.28312997E-11 4.20330144E-11 0.00000000E+00 0.00000000E+00
 2 15-7.08198130E-05-7.08197793E-05-1.88852600E-04 0.00000000E+00 0.00000000E+00
 2 16 0.00000000E+00 0.00000000E+00 0.00000000E+00 0.00000000E+00-4.14676598E-05
 2 17 1.65871169E-04 1.65871110E-04 0.00000000E+00 0.00000000E+00 0.00000000E+00
 2 18 4.45725691E-05-8.43059465E-04 1.12414658E-03 6.24173268E-05-1.57570227E-04
 2 19 2.72919670E-04-2.56738906E-11 3.07757825E-04-5.33052181E-04-2.62014393E-11
 2 20-2.98550084E-04 5.17103671E-04-3.57288665E-11 2.53676551E-06-1.99721468E-05
 2 21 1.74353813E-05 2.25089318E-05 0.00000000E+00 0.00000000E+00-7.39074096E-05
 2 22 4.18143238E-04-3.44235828E-04-4.92050056E-04 0.00000000E+00 0.00000000E+00
 2 23-1.37518932E-04-1.02513271E-04 0.00000000E+00-4.58453530E-05 0.00000000E+00
 2 24 2.90376231E-04 0.00000000E+00-1.05875223E-04 1.83381338E-04 0.00000000E+00
 2 25 4.45726202E-05-8.43059271E-04 1.12414610E-03 6.24171549E-05-1.57570216E-04
 2 26-2.72919654E-04-2.45728917E-11 3.07757769E-04 5.33052080E-04-2.79302322E-11
 2 27-2.98550121E-04-5.17103762E-04-3.51867756E-11 2.53676017E-06-1.99721349E-05
 2 28 1.74353748E-05-2.25089224E-05 0.00000000E+00 0.00000000E+00-7.39073773E-05
 2 29 4.18143065E-04-3.44235687E-04 4.92049814E-04 0.00000000E+00 0.00000000E+00
 2 30-1.37518908E-04 1.02513253E-04 0.00000000E+00 4.58453518E-05 0.00000000E+00
 2 31 2.90376189E-04 0.00000000E+00-1.05875213E-04-1.83381314E-04 0.00000000E+00
 2 32 4.45727222E-05-8.43060629E-04 1.12414416E-03 6.24198100E-05 3.15141473E-04
 2 33 0.00000000E+00-2.82953814E-11-6.15516788E-04 0.00000000E+00-2.44234210E-11
 2 34 5.97095318E-04 0.00000000E+00-3.30135391E-11-3.12268173E-05 1.37914601E-05
 2 35 1.74353572E-05 0.00000000E+00 0.00000000E+00 0.00000000E+00 6.64167349E-04
 2 36-3.19931802E-04-3.44235547E-04 0.00000000E+00 0.00000000E+00 0.00000000E+00
 2 37-3.15077361E-04 0.00000000E+00 0.00000000E+00 0.00000000E+00 0.00000000E+00
 2 38 2.10970007E-04 0.00000000E+00 2.11750632E-04 0.00000000E+00 0.00000000E+00
 2 39-2.31197577E-05 8.50527096E-05 1.94288891E-04-9.79883007E-04 3.37496762E-05
 2 40-5.84560196E-05-1.53860419E-11 1.72328481E-04-2.98481545E-04-2.14610482E-11
 2 41-9.65252244E-05 1.67186351E-04 0.00000000E+00-4.59435324E-06 2.47268204E-05
 2 42-2.01324671E-05-2.93212752E-05 0.00000000E+00 0.00000000E+00-1.76996727E-05
 2 43 7.85186031E-05-6.08189304E-05-9.62182072E-05 0.00000000E+00 0.00000000E+00
 2 44-2.35461453E-05-1.62252580E-05 0.00000000E+00-7.25606224E-06 0.00000000E+00
 2 45 4.83477957E-05 0.00000000E+00-1.67573268E-05 2.90245302E-05 0.00000000E+00
 2 46-2.31197173E-05 8.50526930E-05 1.94288993E-04-9.79882840E-04 3.37496798E-05
 2 47 5.84560161E-05-1.57254442E-11 1.72328474E-04 2.98481544E-04-2.05086926E-11
 2 48-9.65251961E-05-1.67186275E-04-1.05211980E-11-4.59435054E-06 2.47268169E-05
 2 49-2.01324663E-05 2.93212722E-05 0.00000000E+00 0.00000000E+00-1.76996789E-05
 2 50 7.85185948E-05-6.08189159E-05 9.62181829E-05 0.00000000E+00 0.00000000E+00
 2 51-2.35461428E-05 1.62252550E-05 0.00000000E+00 7.25605750E-06 0.00000000E+00
 2 52 4.83477860E-05 0.00000000E+00-1.67573205E-05-2.90245213E-05 0.00000000E+00
 2 53-2.31200573E-05 8.50543589E-05 1.94291172E-04-9.79882864E-04-6.74985194E-05
 2 54 0.00000000E+00-1.71270149E-11-3.44656973E-04 0.00000000E+00-2.36698800E-11
 2 55 1.93048815E-04 0.00000000E+00-1.19351835E-11 3.93874542E-05-1.92550304E-05
 2 56-2.01324238E-05 0.00000000E+00 0.00000000E+00 0.00000000E+00 1.26627901E-04
 2 57-6.58089568E-05-6.08189438E-05 0.00000000E+00 0.00000000E+00 0.00000000E+00
 2 58-5.16489412E-05 0.00000000E+00 0.00000000E+00 0.00000000E+00 0.00000000E+00
 2 59 3.57797250E-05 0.00000000E+00 3.35146010E-05 0.00000000E+00 0.00000000E+00
 2 60-3.51415424E-04-5.39226972E-04 2.88488816E-03 4.29990450E-05-1.50250454E-10
 2 61 0.00000000E+00 1.53908469E-04-2.22408148E-10 0.00000000E+00 1.59542330E-03
 2 62-1.62493526E-10-2.78133768E-11-7.53807213E-04-1.33826113E-05-1.33826155E-05
 2 63 2.67652268E-05 0.00000000E+00-3.00782492E-11 0.00000000E+00-6.04339795E-04
 2 64-6.04339695E-04 1.20867949E-03 0.00000000E+00-4.28445209E-11 0.00000000E+00
 2 65 1.66435653E-06 0.00000000E+00 4.23740796E-04 0.00000000E+00-2.84253978E-04
 2 66-2.23295413E-06-2.84253957E-04-1.19047431E-11 0.00000000E+00 0.00000000E+00
 2 67-3.51415317E-04-5.39227371E-04 2.88488662E-03 4.30029120E-05-1.52657326E-10
 2 68 0.00000000E+00-1.53908355E-04-2.20027412E-10 0.00000000E+00-1.59542350E-03
 2 69-1.29307872E-10-2.74328257E-11 7.53804304E-04-1.33825906E-05-1.33825938E-05
 2 70 2.67651844E-05 0.00000000E+00 3.27212212E-11 0.00000000E+00-6.04339656E-04
 2 71-6.04339553E-04 1.20867921E-03 0.00000000E+00 3.24574351E-11 0.00000000E+00
 2 72 1.66436107E-06 0.00000000E+00-4.23740845E-04 0.00000000E+00 2.84254010E-04
 2 73-2.23295578E-06 2.84253991E-04-1.63173003E-11 0.00000000E+00 0.00000000E+00
 2 74 2.69035351E-05 4.35528773E-05-1.61330551E-04-1.41413417E-03-1.75947311E-11
 2 75 0.00000000E+00-1.32144284E-04-1.66620344E-10 0.00000000E+00 1.14143010E-04
 2 76 5.52504176E-11 0.00000000E+00-5.16405173E-04-1.36084843E-05-1.36084581E-05
 2 77 2.72169424E-05 0.00000000E+00 0.00000000E+00 0.00000000E+00-7.33158277E-05
 2 78-7.33158289E-05 1.46631657E-04 0.00000000E+00 0.00000000E+00 0.00000000E+00
 2 79-7.39459266E-07 0.00000000E+00 5.22917377E-05 0.00000000E+00-3.50783427E-05
 2 80 9.92105976E-07-3.50783853E-05-1.88667007E-11 0.00000000E+00 0.00000000E+00
 2 81 2.69036255E-05 4.35525941E-05-1.61330527E-04-1.41413192E-03-1.99145013E-11
 2 82 0.00000000E+00 1.32144313E-04-1.61112184E-10 0.00000000E+00-1.14143124E-04
 2 83 4.76846404E-11 0.00000000E+00 5.16404392E-04-1.36084765E-05-1.36084548E-05
 2 84 2.72169313E-05 0.00000000E+00 0.00000000E+00 0.00000000E+00-7.33158736E-05
 2 85-7.33158725E-05 1.46631746E-04 0.00000000E+00 0.00000000E+00 0.00000000E+00
 2 86-7.39458784E-07 0.00000000E+00-5.22917475E-05 0.00000000E+00 3.50783470E-05
 2 87 9.92105771E-07 3.50783942E-05-1.92617505E-11 0.00000000E+00 0.00000000E+00
 3  1-3.37038269E-11 8.01015537E-11-1.80794982E-10 1.46984697E-11 1.93042577E-10
 3  2-2.35043550E-10-7.93801240E-10-8.29338209E-11 9.95869096E-03 9.97376015E-01
 3  3 6.06858634E-08 5.59408422E-06 5.60227108E-04 2.73756310E-11 9.04095618E-05
 3  4 9.05457211E-03 5.69060967E-10-2.49277670E-05-2.49654069E-03-1.88451826E-10
 3  5 1.10139680E-05 1.10300592E-03 1.41876594E-10 7.65867319E-06 7.66772208E-04
 3  6-1.91711457E-11-4.28969589E-07 4.29008573E-07-3.91073782E-11 4.96265391E-05
 3  7 0.00000000E+00 0.00000000E+00 1.58109350E-06-1.58104680E-06-4.68345329E-11
 3  8-1.82839832E-04 0.00000000E+00 0.00000000E+00-4.28420723E-06 4.28400760E-06
 3  9 1.99685962E-10 4.95420617E-04 0.00000000E+00 0.00000000E+00 5.80099015E-06
 3 10-5.80061947E-06-3.70677531E-10-6.70772271E-04 0.00000000E+00 0.00000000E+00
 3 11 1.24967871E-07 1.25138636E-05 0.00000000E+00 5.59635098E-06 0.00000000E+00
 3 12 5.58683929E-08 0.00000000E+00-2.23530386E-07-2.23854607E-05 0.00000000E+00
 3 13-5.43774972E-07-5.44571653E-05 0.00000000E+00-2.43539541E-05 0.00000000E+00
 3 14-2.43155298E-07 0.00000000E+00 9.72705980E-07 9.74159082E-05 0.00000000E+00
 3 15-1.20144125E-07-3.83717533E-08 0.00000000E+00-8.90635140E-06 0.00000000E+00
 3 16 1.50979898E-05 0.00000000E+00 0.00000000E+00 0.00000000E+00 1.39226094E-07
 3 17 7.18214942E-08-7.18214993E-08 0.00000000E+00 0.00000000E+00-8.30695457E-06
 3 18-6.29528825E-06-2.29046921E-05-1.31170136E-04-3.93743148E-04-1.29187553E-05
 3 19 2.39120669E-05 0.00000000E+00 6.94892845E-05-1.07804324E-04 0.00000000E+00
 3 20-2.99083846E-04 5.58087904E-04 0.00000000E+00-9.82812028E-07 5.31185423E-06
 3 21-4.32904220E-06-4.18152605E-06 0.00000000E+00 0.00000000E+00 1.02081950E-05
 3 22-2.71087575E-05 1.69005626E-05 2.66903372E-05 0.00000000E+00 0.00000000E+00
 3 23-4.67984069E-05-3.63662291E-05 0.00000000E+00-1.92558140E-05 0.00000000E+00
 3 24 1.02852217E-04 0.00000000E+00-4.00655655E-05 6.80462303E-05 0.00000000E+00
 3 25 6.36839087E-06 2.31695847E-05 1.32691221E-04 3.98310251E-04 1.30987722E-05
 3 26 2.41715758E-05 0.00000000E+00-7.00473259E-05-1.09197716E-04 0.00000000E+00
 3 27 3.03343905E-04 5.64105011E-04 0.00000000E+00 9.58063313E-07-5.33733067E-06
 3 28 4.37926736E-06-4.25409978E-06 0.00000000E+00 0.00000000E+00-1.01447924E-05
 3 29 2.72415960E-05-1.70968036E-05 2.71211868E-05 0.00000000E+00 0.00000000E+00
 3 30 4.73559538E-05-3.68728098E-05 0.00000000E+00-1.93805982E-05 0.00000000E+00
 3 31-1.04038267E-04 0.00000000E+00 4.05035879E-05 6.88506637E-05 0.00000000E+00
 3 32-7.31193164E-08-2.65568698E-07-1.52063332E-06-4.56651023E-06 3.14933589E-07
 3 33 1.50982552E-06 0.00000000E+00-1.48538101E-06 1.23414094E-05 0.00000000E+00
 3 34 7.33976851E-06 3.93785624E-05 0.00000000E+00 7.97437436E-08-2.95057330E-08
 3 35-5.02380107E-08 2.07708679E-06 0.00000000E+00 0.00000000E+00-4.38283664E-07
 3 36 2.42196833E-07 1.96086831E-07-1.04460577E-05 0.00000000E+00 0.00000000E+00
 3 37-1.31423608E-06-2.54709800E-06 0.00000000E+00 4.74381713E-06 0.00000000E+00
 3 38 8.47641801E-07 0.00000000E+00 9.15590925E-07-1.32652657E-06 0.00000000E+00
 3 39-2.50399403E-06 9.55237232E-06 2.49712803E-04-5.01304958E-04-3.09125512E-07
 3 40 3.93272010E-06 0.00000000E+00 5.05770746E-05-8.06708100E-05 0.00000000E+00
 3 41-5.66921511E-05 8.77521072E-05 0.00000000E+00-1.70322317E-06 8.93643073E-06
 3 42-7.23320755E-06-1.15403445E-05 0.00000000E+00 0.00000000E+00-2.65132451E-06
 3 43 5.88303142E-06-3.23170691E-06-1.13028493E-06 0.00000000E+00 0.00000000E+00
 3 44-2.13372599E-06-3.01558735E-06 0.00000000E+00 3.15615137E-08 0.00000000E+00
 3 45 4.89212384E-06 0.00000000E+00-2.02943003E-06 4.01427347E-06 0.00000000E+00
 3 46 2.53302438E-06-9.66303499E-06-2.52609105E-04 5.07120007E-04 3.79859981E-07
 3 47 3.93962625E-06 0.00000000E+00-5.10267386E-05-8.16853578E-05 0.00000000E+00
 3 48 5.71437483E-05 8.88890106E-05 0.00000000E+00 1.73838371E-06-9.05546414E-06
 3 49 7.31708043E-06-1.16639243E-05 0.00000000E+00 0.00000000E+00 2.55548721E-06
 3 50-5.82465641E-06 3.26916920E-06-1.22770275E-06 0.00000000E+00 0.00000000E+00
 3 51 2.15293724E-06-3.01220396E-06 0.00000000E+00-1.38371461E-08 0.00000000E+00
 3 52-4.95127817E-06 0.00000000E+00 2.06280976E-06 4.05513284E-06 0.00000000E+00
 3 53-2.90140336E-08 1.10732745E-07 2.89556486E-06-5.81417654E-06 4.13404783E-08
 3 54 3.33916077E-06 0.00000000E+00-1.10323009E-06 6.81342716E-06 0.00000000E+00
 3 55 1.21033661E-06-1.02645734E-05 0.00000000E+00 1.73162703E-07-8.92832182E-08
 3 56-8.38794844E-08-8.85390246E-07 0.00000000E+00 0.00000000E+00 5.32361513E-08
 3 57-1.57914473E-08-3.74447337E-08 7.27830551E-06 0.00000000E+00 0.00000000E+00
 3 58-6.70081043E-08 1.24250916E-06 0.00000000E+00-2.15772670E-06 0.00000000E+00
 3 59 3.78204285E-08 0.00000000E+00 5.20803773E-08 4.90725733E-07 0.00000000E+00
 3 60 4.15253776E-11-1.52946360E-10 8.04910185E-11 1.36407301E-10 1.14983379E-07
 3 61 1.15623660E-05-8.83883813E-11-2.70912875E-07-2.70932668E-05-6.51189642E-11
 3 62-8.07164517E-08-7.98789426E-06 0.00000000E+00-1.80860122E-08 1.80910824E-08
 3 63 0.00000000E+00 2.09071028E-06 3.15118320E-08 3.15034774E-06-6.23489597E-08
 3 64 6.23446566E-08 0.00000000E+00 7.20583392E-06-7.08793613E-07-7.09440832E-05
 3 65 1.40621940E-09-1.06131128E-07 0.00000000E+00-4.74590486E-08-5.24351788E-08
 3 66 6.32744823E-10 5.24440367E-08-2.51938612E-09 1.89848898E-07 6.06283173E-06
 3 67 5.39796681E-11-1.30896708E-10-1.94685509E-11 1.20118753E-10 1.14979473E-07
 3 68 1.15623661E-05 1.08981535E-10-2.70899800E-07-2.70932700E-05 2.20504594E-11
 3 69-8.06956800E-08-7.98789992E-06 0.00000000E+00-1.80801685E-08 1.80688337E-08
 3 70 1.13923166E-11 2.09070730E-06-3.15286038E-08-3.15034939E-06-6.23231311E-08
 3 71 6.23299340E-08 0.00000000E+00 7.20583180E-06 7.08794540E-07 7.09440858E-05
 3 72 1.40351936E-09-1.06155587E-07 7.35708489E-11-4.74593987E-08 5.23973472E-08
 3 73 6.31377084E-10-5.24961446E-08-2.51439590E-09 1.89882064E-07-6.06283450E-06
 3 74 1.02664185E-11 1.18952089E-11 0.00000000E+00-1.12522905E-10 3.29628742E-08
 3 75 3.43321680E-06 0.00000000E+00-1.30720258E-07-1.34329572E-05 1.96706257E-11
 3 76-2.23122115E-07-2.23379488E-05-3.21217108E-11-5.20948271E-09 5.20832695E-09
 3 77 0.00000000E+00 6.03538701E-07 2.69473478E-08 2.69829418E-06 1.40804884E-08
 3 78-1.40956364E-08 1.52058454E-11-1.62830805E-06-1.50998984E-07-1.50893658E-05
 3 79-1.02828549E-08-7.04116833E-07 0.00000000E+00-3.14768213E-07 2.93220728E-09
 3 80 2.80376520E-09-2.93333995E-09 1.09921324E-08 1.25944007E-06 2.50250393E-07
 3 81 1.26350708E-11 0.00000000E+00 6.24098630E-11-1.03175776E-10 3.29660617E-08
 3 82 3.43320859E-06-2.64315038E-11-1.30732246E-07-1.34329570E-05-3.67060081E-11
 3 83-2.23127439E-07-2.23379496E-05 1.14928809E-11-5.21363772E-09 5.21197422E-09
 3 84 0.00000000E+00 6.03586433E-07-2.69482858E-08-2.69829327E-06 1.40828495E-08
 3 85-1.40596296E-08-2.32936305E-11-1.62833386E-06 1.51012524E-07 1.50893685E-05
 3 86-1.02830822E-08-7.04121428E-07 0.00000000E+00-3.14758786E-07-2.93313609E-09
 3 87 2.80283021E-09 2.93376597E-09 1.09933723E-08 1.25943681E-06-2.50260738E-07
 4  1-5.27841871E-11 6.19379519E-10 8.69594919E-10-5.16035625E-10-1.28528670E-09
 4  2 1.64622523E-09-1.18138896E-09-5.98585004E-10 9.97376015E-01-9.95869095E-03
 4  3-5.32012695E-09 5.60227052E-04-5.59409362E-06 0.00000000E+00 9.05457226E-03
 4  4-9.04096106E-05-5.22401028E-11-2.49654086E-03 2.49279037E-05-1.69599189E-11
 4  5 1.10300644E-03-1.10140980E-05 1.22753857E-10 7.66774360E-04-7.65832750E-06
 4  6-6.93277180E-10-4.29777377E-05 4.29777716E-05-4.44427976E-11-4.95315531E-07
 4  7 0.00000000E+00 0.00000000E+00 1.58344109E-04-1.58344016E-04-1.02806492E-10
 4  8 1.82565695E-06 0.00000000E+00 0.00000000E+00-4.29047236E-04 4.29046678E-04
 4  9 5.60330280E-10-4.94689544E-06 1.27856770E-11 0.00000000E+00 5.80906295E-04
 4 10-5.80904942E-04-1.35045299E-09 6.69829974E-06-2.21974138E-11 0.00000000E+00
 4 11 1.25138724E-05-1.24954945E-07 0.00000000E+00-5.58828162E-08 0.00000000E+00
 4 12 5.59638151E-06 0.00000000E+00-2.23855031E-05 2.23527467E-07 0.00000000E+00
 4 13-5.44571945E-05 5.43748641E-07 0.00000000E+00 2.43176567E-07 0.00000000E+00
 4 14-2.43538477E-05 0.00000000E+00 9.74158410E-05-9.72691922E-07 0.00000000E+00
 4 15-1.20341245E-05-3.84332355E-06 0.00000000E+00 8.89164917E-08 0.00000000E+00
 4 16-1.50727269E-07 0.00000000E+00 0.00000000E+00 0.00000000E+00 1.39453232E-05
 4 17 7.19406217E-06-7.19406369E-06 0.00000000E+00 0.00000000E+00 8.29278604E-08
 4 18 3.71904814E-06 1.35306096E-05 7.74863229E-05 2.32601195E-04 9.15033683E-06
 4 19-1.32488285E-05 0.00000000E+00-2.86359603E-05 7.08514803E-05 0.00000000E+00
 4 20 2.16292903E-04-3.06818367E-04 0.00000000E+00-1.22890901E-06-1.32849886E-06
 4 21 2.55740787E-06 3.67644030E-06 0.00000000E+00 0.00000000E+00 3.06910009E-06
 4 22 6.91498968E-06-9.98408976E-06-2.18332906E-05 0.00000000E+00 0.00000000E+00
 4 23 2.83917143E-05 2.57334603E-05 0.00000000E+00 6.44305307E-06 0.00000000E+00
 4 24-6.04253829E-05 0.00000000E+00 2.23339010E-05-4.09681129E-05 0.00000000E+00
 4 25 3.59241056E-06 1.30710186E-05 7.48515767E-05 2.24691866E-04 8.89072230E-06
 4 26 1.27689921E-05 0.00000000E+00-2.72427507E-05-6.86848525E-05 0.00000000E+00
 4 27 2.10276986E-04 2.95612349E-04 0.00000000E+00-1.24825404E-06-1.22214809E-06
 4 28 2.47040214E-06-3.59223520E-06 0.00000000E+00 0.00000000E+00 3.27219811E-06
 4 29 6.37213686E-06-9.64433497E-06 2.12959494E-05 0.00000000E+00 0.00000000E+00
 4 30 2.74515598E-05-2.50022059E-05 0.00000000E+00-6.05727796E-06 0.00000000E+00
 4 31-5.83596177E-05 0.00000000E+00 2.15294855E-05 3.96012571E-05 0.00000000E+00
 4 32-7.31128989E-06-2.66009859E-05-1.52340740E-04-4.57294279E-04 3.15523217E-05
 4 33-1.50873815E-08 0.00000000E+00-1.48784022E-04-1.23237955E-07 0.00000000E+00
 4 34 7.35006171E-04-3.93082541E-07 0.00000000E+00 7.98353592E-06-2.95595675E-06
 4 35-5.02757917E-06-2.07391368E-08 0.00000000E+00 0.00000000E+00-4.38990854E-05
 4 36 2.42700794E-05 1.96290060E-05 1.04314790E-07 0.00000000E+00 0.00000000E+00
 4 37-1.31629924E-04 2.54548145E-08 0.00000000E+00-4.73673098E-08 0.00000000E+00
 4 38 8.48929298E-05 0.00000000E+00 9.17071448E-05 1.32160925E-08 0.00000000E+00
 4 39 1.47922711E-06-5.64269076E-06-1.47516093E-04 2.96144324E-04 3.54150866E-06
 4 40-3.83914906E-07 0.00000000E+00-2.30246085E-05 5.16125642E-05 0.00000000E+00
 4 41 2.31655348E-05-5.78007483E-05 0.00000000E+00 1.77749134E-06-6.05040182E-06
 4 42 4.27291048E-06 6.30314274E-06 0.00000000E+00 0.00000000E+00-4.77440661E-06
 4 43 2.86528509E-06 1.90912151E-06 4.89473938E-06 0.00000000E+00 0.00000000E+00
 4 44 9.84548386E-07-1.39725593E-07 0.00000000E+00 2.27385737E-06 0.00000000E+00
 4 45-3.01337518E-06 0.00000000E+00 1.69246491E-06-2.08639581E-06 0.00000000E+00
 4 46 1.42896203E-06-5.45090667E-06-1.42500422E-04 2.86074261E-04 3.53461340E-06
 4 47 3.05232472E-07 0.00000000E+00-2.20101604E-05-4.99916353E-05 0.00000000E+00
 4 48 2.20287782E-05 5.60366718E-05 0.00000000E+00 1.74312291E-06-5.87076395E-06
 4 49 4.12764104E-06-6.07145485E-06 0.00000000E+00 0.00000000E+00-4.82637024E-06
 4 50 2.98215753E-06 1.84421271E-06-4.87123881E-06 0.00000000E+00 0.00000000E+00
 4 51 9.41750542E-07 1.99893538E-07 0.00000000E+00-2.27402216E-06 0.00000000E+00
 4 52-2.91509332E-06 0.00000000E+00 1.65160238E-06 2.00583683E-06 0.00000000E+00
 4 53-2.90820738E-06 1.10937229E-05 2.90019259E-04-5.82217460E-04 4.13556865E-06
 4 54-3.33695266E-08 0.00000000E+00-1.10509859E-04-6.80608530E-08 0.00000000E+00
 4 55 1.21182812E-04 1.02422055E-07 0.00000000E+00 1.73418274E-05-8.94112412E-06
 4 56-8.40070324E-06 8.83909225E-09 0.00000000E+00 0.00000000E+00 5.33926260E-06
 4 57-1.58593461E-06-3.75332800E-06-7.26588255E-08 0.00000000E+00 0.00000000E+00
 4 58-6.71155923E-06-1.24077180E-08 0.00000000E+00 2.15427248E-08 0.00000000E+00
 4 59 3.78843479E-06 0.00000000E+00 5.21606681E-06-4.89602426E-09 0.00000000E+00
 4 60-6.64676722E-11 2.52814546E-10 2.18906136E-09 5.22987840E-10 1.15622911E-05
 4 61-1.14981185E-07 9.72938407E-11-2.70932128E-05 2.70916455E-07-4.63093423E-11
 4 62-7.98780545E-06 8.07338819E-08-7.94286873E-10-1.81067474E-06 1.81057572E-06
 4 63 1.03111944E-10-2.08475212E-08 3.15031643E-06-3.15121624E-08-6.24055815E-06
 4 64 6.24012962E-06 4.30787667E-10-7.20276502E-08-7.09437786E-05 7.08789847E-07
 4 65-1.06077942E-07-1.40653707E-09-1.12276375E-10-6.29078884E-10-5.25044104E-06
 4 66-4.74539294E-08 5.25059421E-06 1.89772423E-07 2.51614638E-09-6.05506576E-08
 4 67-5.14489958E-11 3.03157551E-10 1.69527231E-09 1.26391848E-09 1.15622996E-05
 4 68-1.14981877E-07-9.90041899E-11-2.70932145E-05 2.70921886E-07 0.00000000E+00
 4 69-7.98780560E-06 8.07301540E-08-2.53508617E-10-1.81065882E-06 1.81055220E-06
 4 70 1.10707873E-10-2.08692013E-08-3.15032113E-06 3.15222016E-08-6.24048735E-06
 4 71 6.24019585E-06 2.93699476E-10-7.19835793E-08 7.09437754E-05-7.08792220E-07
 4 72-1.06090986E-07-1.40875158E-09 1.21013396E-10-6.29689629E-10 5.25044083E-06
 4 73-4.74736782E-08-5.25060572E-06 1.89809672E-07 2.51972820E-09 6.05744899E-08
 4 74-4.02769994E-11 2.45751544E-11-3.35369825E-10-1.80471596E-09 3.43326288E-06
 4 75-3.29770042E-08 1.34111114E-11-1.34328877E-05 1.30735488E-07-1.60519429E-10
 4 76-2.23377929E-05 2.23109385E-07-7.37538979E-10-5.22683955E-07 5.22704374E-07
 4 77-2.11984140E-11-6.03210538E-09 2.69828635E-06-2.69468371E-08 1.41025380E-06
 4 78-1.41009841E-06-1.58279014E-10 1.62825135E-08-1.50892546E-05 1.50999555E-07