 !#############################################################################
 !                   D_3h RHF GEOMETRY OPTIMIZATION AND HESSIAN TEMPLATE
 ! ---------------------------------------------------------------------------
 ! Replace the symmetry-correct coordinates, should only be two atoms.  
 ! The hydrogen or fluorine should have only one non-zero x,y,z coordinate.
 ! 
 ! Basis set?   gbasis=ccd for 2nd row, 
 !                         cct 3rd/4th,
 !                   SPKrTZP for heavy,
 !                   SPKrTZC beyond 4th
 ! 
 !#############################################################################
 $system kdiag=3 mwords=1000 memddi=25000 parall=.t. $end
 $contrl runtyp=energy ispher=1 $end
 $contrl icut=9 itol=20 inttyp=rysquad qmttol=1.0d-05 nosym=1 $end
 $contrl scftyp=mcscf  mult=2 maxit=200 icharg=1 mplevl=2 $end
 $scf    npunch=2 conv=1.0d-06 dirscf=.t. $end
 $force  method=seminum $end
 $trans  dirtrf=.t. $end
 $statpt hssend=.t. $end
 $basis  gbasis=SPKrTZP $end
 !#############################################################################
 !
 !                       TURN ON THIS SECTION IF HEAVY ATOM
 !
 !#############################################################################
 !
 $contrl relwfn=LUT-IOTC $end
 $scf  diis=.t. soscf=.f. ethrsh=10.0 $end
 -guess iorder(43)=44 iorder(44)=43 $end
 $gmcpt nsolut=100 $end
 !
 !#############################################################################
 !
 ! TURN ON THIS SECTION IF GMCPT, CHANGE runtyp=energy, scftyp=mcscf, change nosym=1
 !
 !#############################################################################
 $guess  guess=moread norb=369 purify=.t. norder=1 $end
 $mcscf  cistep=gmcci fullnr=.t. finci=mos
         acurcy=1.d-6 maxit=100 $end
 $mrmp   mrpt=gmcpt rdvecs=.f. $end
 $gmcpt  nmofzc=19 nmodoc=24 nmoact=8 nelact=9 stsym(1)=A
         reftyp=ormas nspace=1 mstart(1)=44 mine(1)=9 maxe(1)=9
         kstate(1)=1,1,1,1,1
         wstate(1)=1,1,1,1,1
         iwgt=0 thrwgt=-1.0 krot=.f. kszdoe=.f. knospn=.f.
         thrde=-1.0 edshft=0.02 maxbas=800 $end
 !#############################################################################
 !
 !             TURN OFF THIS SECTION IF temp.inp, add C1
 !
 !    IF SOC, $transt $end, turn knospn=.t., restart from gmcpt states calc
 !
 !#############################################################################
 $data
 Iron pentacarbonyl optimization
 C1
 FE         26.0  -0.0000000000   0.0000000000   0.0000000000
 C           6.0  -0.8824444078   1.5284385491   0.0000000000
 C           6.0  -0.8824444078  -1.5284385491   0.0000000000
 C           6.0   1.7648888155   0.0000000000   0.0000000000
 O           8.0  -1.4586915946   2.5265279545   0.0000000000
 O           8.0  -1.4586915946  -2.5265279545   0.0000000000
 O           8.0   2.9173831893   0.0000000000   0.0000000000
 C           6.0   0.0000000000   0.0000000000  -1.6781093310
 C           6.0  -0.0000000000   0.0000000000   1.6781093310
 O           8.0  -0.0000000000   0.0000000000  -2.8433375200
 O           8.0  -0.0000000000   0.0000000000   2.8433375200
 $end
Semi-canonical MOs --- generated at Tue Mar 26 22:36:14 2024
 $VEC   
 1  1 9.97431444E-01 1.19334607E-02 3.43580829E-03-7.24102485E-03 2.26774628E-03
 1  2-3.51374589E-03 6.98889834E-04-7.90272500E-05 0.00000000E+00 0.00000000E+00
 1  3 0.00000000E+00-1.95369910E-11 0.00000000E+00 0.00000000E+00 5.00122584E-11
 1  4 3.56520077E-11 0.00000000E+00-1.52373049E-10-9.13294777E-11-1.12230943E-11
 1  5 3.10012827E-10 2.04068613E-10-1.91879788E-11-2.86203369E-10-8.46406474E-10
 1  6 5.96044029E-10 2.65426524E-06 2.65423309E-06-5.30849834E-06-1.94847321E-11
 1  7 0.00000000E+00 0.00000000E+00-1.72386489E-05-1.72385317E-05 3.44771806E-05
 1  8 4.09514030E-11 0.00000000E+00 0.00000000E+00 1.34169105E-04 1.34168682E-04
 1  9-2.68337788E-04-1.65897696E-10 1.89400909E-11 0.00000000E+00-4.78837703E-05
 1 10-4.78831013E-05 9.57668715E-05 2.14352821E-10-2.96394523E-11 0.00000000E+00
 1 11 1.58843153E-05 0.00000000E+00 0.00000000E+00 0.00000000E+00 0.00000000E+00
 1 12-2.13110399E-05 0.00000000E+00 0.00000000E+00 0.00000000E+00 0.00000000E+00
 1 13-1.12898320E-04 0.00000000E+00-2.68843949E-11 0.00000000E+00 1.88633225E-11
 1 14 1.51469036E-04 1.72058783E-11-4.48921661E-11 0.00000000E+00 0.00000000E+00
 1 15-1.77037843E-05-1.77037874E-05-4.72101325E-05 0.00000000E+00 0.00000000E+00
 1 16 0.00000000E+00 0.00000000E+00 0.00000000E+00 0.00000000E+00-1.03663079E-05
 1 17 4.14651318E-05 4.14651373E-05 0.00000000E+00 0.00000000E+00 0.00000000E+00
 1 18-2.99860094E-05-1.94011665E-04 5.33453933E-04 3.63284698E-05-1.45358014E-05
 1 19 2.51767667E-05 0.00000000E+00 1.12348295E-04-1.94592994E-04 0.00000000E+00
 1 20-1.06357589E-04 1.84216801E-04-3.44853745E-11 1.56353836E-06-5.21956760E-06
 1 21 3.65602925E-06 6.78309765E-06 0.00000000E+00 0.00000000E+00-2.59680308E-05
 1 22 1.41965624E-04-1.15997593E-04-1.67933329E-04 0.00000000E+00 0.00000000E+00
 1 23-3.74040703E-05-2.81294718E-05 0.00000000E+00-1.25798743E-05 0.00000000E+00
 1 24 7.92348271E-05 0.00000000E+00-2.90520009E-05 5.03195209E-05 0.00000000E+00
 1 25-2.99860297E-05-1.94011796E-04 5.33454619E-04 3.63275761E-05-1.45358094E-05
 1 26-2.51767715E-05 0.00000000E+00 1.12348278E-04 1.94592971E-04 0.00000000E+00
 1 27-1.06358327E-04-1.84217945E-04-3.33062975E-11 1.56353862E-06-5.21957155E-06
 1 28 3.65603293E-06-6.78309849E-06 0.00000000E+00 0.00000000E+00-2.59680367E-05
 1 29 1.41965711E-04-1.15997675E-04 1.67933468E-04 0.00000000E+00 0.00000000E+00
 1 30-3.74040789E-05 2.81294788E-05 0.00000000E+00 1.25798775E-05 0.00000000E+00
 1 31 7.92348495E-05 0.00000000E+00-2.90520117E-05-5.03195336E-05 0.00000000E+00
 1 32-2.99859920E-05-1.94011432E-04 5.33454290E-04 3.63281072E-05 2.90716304E-05
 1 33 0.00000000E+00 0.00000000E+00-2.24696364E-04 0.00000000E+00 0.00000000E+00
 1 34 2.12715818E-04 6.80137418E-11-3.31897202E-11-8.61103438E-06 4.95503901E-06
 1 35 3.65599537E-06 0.00000000E+00 0.00000000E+00 0.00000000E+00 2.25932133E-04
 1 36-1.09934562E-04-1.15997570E-04 2.22758901E-11 0.00000000E+00 0.00000000E+00
 1 37-8.61256851E-05 0.00000000E+00 0.00000000E+00 0.00000000E+00 0.00000000E+00
 1 38 5.74457970E-05 0.00000000E+00 5.81039349E-05 0.00000000E+00 0.00000000E+00
 1 39-4.05469753E-07 1.67518765E-05 5.44971656E-06-3.68950863E-04-1.31013718E-06
 1 40 2.26922529E-06 0.00000000E+00 2.95493620E-05-5.11810262E-05 0.00000000E+00
 1 41-5.34563936E-05 9.25889805E-05 0.00000000E+00-1.16000171E-06 5.84068459E-06
 1 42-4.68068288E-06-7.00073887E-06 0.00000000E+00 0.00000000E+00-4.19514967E-06
 1 43 1.99763263E-05-1.57811766E-05-2.41713998E-05 0.00000000E+00 0.00000000E+00
 1 44-6.66878946E-06-4.75843112E-06 0.00000000E+00-2.12803056E-06 0.00000000E+00
 1 45 1.38615768E-05 0.00000000E+00-4.91445685E-06 8.51213582E-06 0.00000000E+00
 1 46-4.05465446E-07 1.67519002E-05 5.44965701E-06-3.68951998E-04-1.31013602E-06
 1 47-2.26922321E-06 0.00000000E+00 2.95493563E-05 5.11810263E-05 0.00000000E+00
 1 48-5.34565263E-05-9.25892800E-05 0.00000000E+00-1.16000465E-06 5.84068760E-06
 1 49-4.68068295E-06 7.00073812E-06 0.00000000E+00 0.00000000E+00-4.19513819E-06
 1 50 1.99763134E-05-1.57811752E-05 2.41714015E-05 0.00000000E+00 0.00000000E+00
 1 51-6.66878113E-06 4.75843411E-06 0.00000000E+00 2.12803220E-06 0.00000000E+00
 1 52 1.38615744E-05 0.00000000E+00-4.91446566E-06-8.51214148E-06 0.00000000E+00
 1 53-4.05467347E-07 1.67518377E-05 5.44964000E-06-3.68951417E-04 2.62024755E-06
 1 54 0.00000000E+00 0.00000000E+00-5.90985545E-05 0.00000000E+00 0.00000000E+00
 1 55 1.06912803E-04-3.54029388E-11 1.68103996E-11 9.34106379E-06-4.66038611E-06
 1 56-4.68067769E-06 0.00000000E+00 0.00000000E+00 0.00000000E+00 3.20618848E-05
 1 57-1.62807733E-05-1.57811116E-05 0.00000000E+00 0.00000000E+00 0.00000000E+00
 1 58-1.49105720E-05 0.00000000E+00 0.00000000E+00 0.00000000E+00 0.00000000E+00
 1 59 1.01756983E-05 0.00000000E+00 9.82893321E-06 0.00000000E+00 0.00000000E+00
 1 60-4.40960782E-05-2.52931713E-04 7.68383236E-04 7.20780525E-07 0.00000000E+00
 1 61 0.00000000E+00-2.99022122E-05 0.00000000E+00 0.00000000E+00 3.09177445E-04
 1 62 3.47576580E-11 0.00000000E+00-2.00032718E-04-2.40235725E-06-2.40232864E-06
 1 63 4.80468589E-06 0.00000000E+00-4.00060915E-11 0.00000000E+00-1.74859440E-04
 1 64-1.74859475E-04 3.49718915E-04 0.00000000E+00 5.14668731E-11 0.00000000E+00
 1 65-1.66978660E-07 0.00000000E+00 9.06145622E-05 0.00000000E+00-6.07860783E-05
 1 66 2.23984853E-07-6.07861143E-05 4.19163907E-11 0.00000000E+00 0.00000000E+00
 1 67-4.40960712E-05-2.52931676E-04 7.68383372E-04 7.20389792E-07-2.00665663E-11
 1 68 0.00000000E+00 2.99022343E-05 0.00000000E+00 0.00000000E+00-3.09177628E-04
 1 69 4.92022939E-11 0.00000000E+00 2.00033781E-04-2.40234673E-06-2.40231891E-06
 1 70 4.80466564E-06 0.00000000E+00 3.69617922E-11 0.00000000E+00-1.74859406E-04
 1 71-1.74859438E-04 3.49718844E-04 0.00000000E+00-6.02885978E-11 0.00000000E+00
 1 72-1.66976598E-07 0.00000000E+00-9.06146229E-05 0.00000000E+00 6.07861212E-05
 1 73 2.23987969E-07 6.07861528E-05 3.60071277E-11 0.00000000E+00 0.00000000E+00
 1 74 6.35921439E-07 2.34337053E-05-8.64146351E-05-3.75727616E-04 0.00000000E+00
 1 75 0.00000000E+00-2.92508094E-06-1.93524092E-11 0.00000000E+00 4.83864681E-05
 1 76 2.79460804E-11 0.00000000E+00-1.22564109E-04-3.44333653E-06-3.44332915E-06
 1 77 6.88666568E-06 0.00000000E+00 0.00000000E+00 0.00000000E+00-2.06632641E-05
 1 78-2.06632446E-05 4.13265087E-05 0.00000000E+00 0.00000000E+00 0.00000000E+00
 1 79-1.33498994E-07 0.00000000E+00 1.61887541E-05 0.00000000E+00-1.08597495E-05
 1 80 1.79108266E-07-1.08597432E-05 0.00000000E+00 0.00000000E+00 0.00000000E+00
 1 81 6.35908055E-07 2.34336301E-05-8.64141361E-05-3.75728771E-04 0.00000000E+00
 1 82 0.00000000E+00 2.92509747E-06 0.00000000E+00 0.00000000E+00-4.83866090E-05
 1 83 2.79037384E-11 0.00000000E+00 1.22564410E-04-3.44335204E-06-3.44333978E-06
 1 84 6.88669181E-06 0.00000000E+00 0.00000000E+00 0.00000000E+00-2.06632566E-05
 1 85-2.06632344E-05 4.13264910E-05 0.00000000E+00 0.00000000E+00 0.00000000E+00
 1 86-1.33500386E-07 0.00000000E+00-1.61887547E-05 0.00000000E+00 1.08597490E-05
 1 87 1.79110067E-07 1.08597447E-05 0.00000000E+00 0.00000000E+00 0.00000000E+00
 2  1-3.20541588E-01 1.04830716E+00 2.73994500E-02-1.41605676E-02 4.61700569E-03
 2  2-1.08213049E-02 1.49417837E-03-2.46450303E-04-2.26296994E-10 1.46471648E-11
 2  3-6.20386622E-11-0.00000000E+00 1.99275607E-11-2.14707163E-11-1.71597543E-10
 2  4-8.37210451E-11 1.10469835E-10 4.46105826E-10 3.10941665E-10-2.82452603E-10
 2  5-5.10541291E-10-7.09761635E-10 5.41084425E-10-3.08029372E-09 5.26437737E-10
 2  6-2.66161810E-09-5.90221550E-04-5.90221419E-04 1.18044297E-03 2.45727029E-11
 2  7 1.71456405E-11-0.00000000E+00 1.72580493E-04 1.72580575E-04-3.45161068E-04
 2  8-2.01029238E-11-3.72935612E-11-0.00000000E+00 3.52784696E-04 3.52784114E-04
 2  9-7.05568809E-04 1.80401466E-10 1.29476033E-10-0.00000000E+00-1.15436816E-04
 2 10-1.15435002E-04 2.30871818E-04 5.55488872E-11-2.00477025E-10-1.56783935E-11
 2 11 8.46660885E-05-0.00000000E+00-0.00000000E+00-0.00000000E+00-0.00000000E+00
 2 12-1.13591478E-04-0.00000000E+00-0.00000000E+00-0.00000000E+00-0.00000000E+00
 2 13-4.68770223E-04-2.19992740E-11-0.00000000E+00-0.00000000E+00-0.00000000E+00
 2 14 6.28921184E-04-0.00000000E+00 7.13849412E-11 3.03069056E-11-0.00000000E+00
 2 15-9.26775310E-05-9.26774918E-05-2.47139937E-04-0.00000000E+00-0.00000000E+00
 2 16 1.31717357E-11-0.00000000E+00-0.00000000E+00-0.00000000E+00-5.42663116E-05
 2 17 2.17065528E-04 2.17065459E-04-0.00000000E+00-0.00000000E+00-1.59447563E-11
 2 18-1.86102432E-05-8.28220250E-04 1.45689586E-03 2.97625377E-05-1.32979242E-04
 2 19 2.30326921E-04-0.00000000E+00 4.18361955E-04-7.24623969E-04-0.00000000E+00
 2 20-3.66849602E-04 6.35402237E-04-5.32937519E-11 3.27289598E-06-1.90814819E-05
 2 21 1.58085860E-05 2.23543881E-05-0.00000000E+00-0.00000000E+00-8.65032013E-05
 2 22 4.49434342E-04-3.62931141E-04-5.35937248E-04-0.00000000E+00 3.61815054E-11
 2 23-1.64457985E-04-1.17936862E-04-0.00000000E+00-5.27429817E-05-0.00000000E+00
 2 24 3.42448191E-04-0.00000000E+00-1.21804651E-04 2.10971886E-04-0.00000000E+00
 2 25-1.86101871E-05-8.28219931E-04 1.45689461E-03 2.97624273E-05-1.32979228E-04
 2 26-2.30326880E-04-0.00000000E+00 4.18361895E-04 7.24623782E-04-0.00000000E+00
 2 27-3.66849141E-04-6.35401685E-04-6.07206218E-11 3.27286948E-06-1.90814508E-05
 2 28 1.58085813E-05-2.23543649E-05-0.00000000E+00-0.00000000E+00-8.65031189E-05
 2 29 4.49434044E-04-3.62930925E-04 5.35936821E-04-0.00000000E+00-3.89520106E-11
 2 30-1.64457946E-04 1.17936822E-04-0.00000000E+00 5.27429947E-05-0.00000000E+00
 2 31 3.42448132E-04-0.00000000E+00-1.21804644E-04-2.10971845E-04-0.00000000E+00
 2 32-1.86101840E-05-8.28219969E-04 1.45689231E-03 2.97657031E-05 2.65958619E-04
 2 33-0.00000000E+00-1.62608898E-11-8.36725278E-04-5.58317566E-11 1.89775189E-11
 2 34 7.33693502E-04-1.10230088E-10-4.40289561E-11-3.02588357E-05 1.44501803E-05
 2 35 1.58086554E-05-1.63594773E-11-0.00000000E+00-0.00000000E+00 7.17402163E-04
 2 36-3.54471436E-04-3.62930727E-04-1.53501595E-11-0.00000000E+00-0.00000000E+00
 2 37-3.68730784E-04-0.00000000E+00-0.00000000E+00-1.90368603E-11-0.00000000E+00
 2 38 2.51094841E-04-0.00000000E+00 2.43609419E-04 1.48216465E-11-0.00000000E+00
 2 39-1.40622329E-05 7.58073981E-05 2.35680752E-04-1.17927486E-03 1.77161176E-05
 2 40-3.06850459E-05-0.00000000E+00 1.78276476E-04-3.08783687E-04-0.00000000E+00
 2 41-1.36379147E-04 2.36215537E-04-0.00000000E+00-5.71317034E-06 2.73204356E-05
 2 42-2.16072652E-05-3.30336503E-05-0.00000000E+00-0.00000000E+00-1.75153990E-05
 2 43 8.49538557E-05-6.74384567E-05-1.02469248E-04-0.00000000E+00-0.00000000E+00
 2 44-2.48416023E-05-1.72934374E-05-0.00000000E+00-7.73383777E-06-0.00000000E+00
 2 45 5.11890938E-05-0.00000000E+00-1.78605870E-05 3.09354188E-05-0.00000000E+00
 2 46-1.40622324E-05 7.58074405E-05 2.35680744E-04-1.17927352E-03 1.77161223E-05
 2 47 3.06850373E-05-0.00000000E+00 1.78276442E-04 3.08783681E-04-0.00000000E+00
 2 48-1.36378986E-04-2.36215142E-04-0.00000000E+00-5.71315881E-06 2.73204303E-05
 2 49-2.16072715E-05 3.30336475E-05-0.00000000E+00-0.00000000E+00-1.75154484E-05
 2 50 8.49538772E-05-6.74384287E-05 1.02469218E-04-0.00000000E+00-0.00000000E+00
 2 51-2.48416124E-05 1.72934447E-05-0.00000000E+00 7.73381869E-06-0.00000000E+00
 2 52 5.11890970E-05-0.00000000E+00-1.78605766E-05-3.09354094E-05-0.00000000E+00
 2 53-1.40622736E-05 7.58073735E-05 2.35681729E-04-1.17926930E-03-3.54319153E-05
 2 54-0.00000000E+00-0.00000000E+00-3.56553267E-04 3.28078835E-11-0.00000000E+00
 2 55 2.72756494E-04 4.71078973E-11-0.00000000E+00 4.38372618E-05-2.22300119E-05
 2 56-2.16072500E-05-0.00000000E+00-0.00000000E+00-0.00000000E+00 1.36188734E-04
 2 57-6.87501489E-05-6.74385851E-05-4.49063336E-11-0.00000000E+00-0.00000000E+00
 2 58-5.47946656E-05-0.00000000E+00-0.00000000E+00-0.00000000E+00-0.00000000E+00
 2 59 3.77936249E-05-0.00000000E+00 3.57211334E-05-0.00000000E+00-0.00000000E+00
 2 60-2.65400370E-04-5.94941126E-04 2.63313270E-03 2.58878454E-04-0.00000000E+00
 2 61-0.00000000E+00 5.54383982E-05-4.03225768E-11 3.32185062E-11 1.54869548E-03
 2 62-1.35245242E-10-8.53974803E-11-3.08397082E-04-8.98953287E-06-8.98957923E-06
 2 63 1.79791121E-05-0.00000000E+00-0.00000000E+00-0.00000000E+00-5.46414821E-04
 2 64-5.46414645E-04 1.09282947E-03-0.00000000E+00-2.17328282E-11-4.09837840E-11
 2 65 3.25023788E-07-1.46249847E-11 3.97628756E-04-0.00000000E+00-2.66737466E-04
 2 66-4.36063015E-07-2.66737492E-04-0.00000000E+00 2.03306048E-11-0.00000000E+00
 2 67-2.65400328E-04-5.94940935E-04 2.63313032E-03 2.58881423E-04-0.00000000E+00
 2 68-0.00000000E+00-5.54383863E-05-0.00000000E+00 3.62209979E-11-1.54869604E-03
 2 69-2.33905307E-11-8.57257783E-11 3.08392945E-04-8.98950678E-06-8.98954380E-06
 2 70 1.79790506E-05-0.00000000E+00-0.00000000E+00-0.00000000E+00-5.46414505E-04
 2 71-5.46414310E-04 1.09282881E-03-0.00000000E+00-3.06770156E-11 3.44535241E-11
 2 72 3.25044319E-07-1.48782381E-11-3.97628832E-04-0.00000000E+00 2.66737513E-04
 2 73-4.36072585E-07 2.66737546E-04-1.75366215E-11 2.05782060E-11-0.00000000E+00
 2 74 1.16643057E-05 5.68561513E-05-6.02903081E-05-1.00763134E-03 1.32212922E-11
 2 75-0.00000000E+00-9.13045594E-05-7.69131390E-11-2.80519401E-11 1.87507461E-04
 2 76 5.37573407E-11-0.00000000E+00-3.59830634E-04-1.42978897E-05-1.42978681E-05
 2 77 2.85957577E-05-0.00000000E+00 1.17438724E-11-0.00000000E+00-7.78849339E-05
 2 78-7.78849526E-05 1.55769887E-04-0.00000000E+00 2.74541063E-11-2.51727624E-11
 2 79-4.78396344E-07-0.00000000E+00 5.37369223E-05-0.00000000E+00-3.60478051E-05
 2 80 6.41838159E-07-3.60478416E-05-0.00000000E+00-0.00000000E+00-0.00000000E+00
 2 81 1.16642983E-05 5.68560725E-05-6.02896620E-05-1.00762775E-03-0.00000000E+00
 2 82-0.00000000E+00 9.13045848E-05-5.47109624E-11-2.33235378E-11-1.87507701E-04
 2 83 1.01711181E-11-0.00000000E+00 3.59829375E-04-1.42978813E-05-1.42978753E-05
 2 84 2.85957566E-05-0.00000000E+00-0.00000000E+00-0.00000000E+00-7.78850170E-05
 2 85-7.78850304E-05 1.55770047E-04-0.00000000E+00-4.36556062E-11 2.36990251E-11
 2 86-4.78399194E-07-0.00000000E+00-5.37369425E-05-0.00000000E+00 3.60478053E-05
 2 87 6.41841327E-07 3.60478686E-05-0.00000000E+00-0.00000000E+00-0.00000000E+00
 3  1-1.20031843E-11 6.98512104E-11 9.80915753E-11 0.00000000E+00-2.88199574E-10
 3  2 2.33449602E-11 5.46556520E-09 2.89404682E-10-1.68302179E-08 5.74266883E-08
 3  3 9.97452718E-01 0.00000000E+00 2.50580087E-11 5.75968495E-04-1.81224451E-10
 3  4 5.81708862E-10 8.91384849E-03 8.32590089E-11-2.18441880E-10-2.42800284E-03
 3  5-7.16096199E-11 1.45260325E-10 9.34870246E-04 3.10762561E-10-3.68480057E-11
 3  6 5.11231304E-04 0.00000000E+00 0.00000000E+00 0.00000000E+00 0.00000000E+00
 3  7 2.67320465E-11 0.00000000E+00 0.00000000E+00 0.00000000E+00 0.00000000E+00
 3  8-1.20000473E-11 6.98848144E-11 0.00000000E+00 1.17904700E-10 1.48739360E-10
 3  9-2.66644061E-10 0.00000000E+00-4.27281686E-11 1.54330063E-11-5.49049675E-10
 3 10-4.26590484E-10 9.75640147E-10 2.86109310E-11 2.01279946E-10-2.13419322E-11
 3 11 0.00000000E+00-1.10754218E-11-2.56544981E-04 0.00000000E+00 1.72095602E-04
 3 12 1.40819461E-11 1.72095608E-04-1.90890856E-11 1.98314265E-11 0.00000000E+00
 3 13 0.00000000E+00 0.00000000E+00-7.35146800E-05 0.00000000E+00 4.93151407E-05
 3 14-2.09500359E-11 4.93151524E-05 2.05130568E-11 0.00000000E+00 0.00000000E+00
 3 15 0.00000000E+00 0.00000000E+00 0.00000000E+00 0.00000000E+00 1.83842519E-06
 3 16 0.00000000E+00 0.00000000E+00-3.50771938E-11 0.00000000E+00 0.00000000E+00
 3 17 0.00000000E+00 0.00000000E+00 0.00000000E+00-2.46646123E-06 0.00000000E+00
 3 18 2.32380960E-11 2.52229017E-10-1.29702449E-09-4.49716602E-11 0.00000000E+00
 3 19 0.00000000E+00 4.37400059E-06 1.17237457E-10-2.45460471E-10-9.84724042E-07
 3 20 1.09653527E-10-2.43789263E-10 3.08740813E-05 0.00000000E+00 0.00000000E+00
 3 21 0.00000000E+00 2.53869152E-11-3.59002762E-07 6.21851496E-07 0.00000000E+00
 3 22-1.85036404E-10 1.79702530E-10 2.48819550E-10-2.22015034E-05 3.84540527E-05
 3 23 0.00000000E+00-1.14046951E-11-4.51398712E-06 0.00000000E+00 3.85401021E-07
 3 24 1.13318907E-11 5.67074821E-06-1.20166985E-11 1.75485074E-11-5.28536339E-06
 3 25 1.19771397E-11 7.18720812E-11-4.67486227E-10-1.31831755E-10 1.83200624E-11
 3 26 2.22980543E-11 4.37401259E-06 0.00000000E+00 0.00000000E+00-9.84725144E-07
 3 27 1.00348654E-11 4.85179435E-11 3.08740791E-05 0.00000000E+00 0.00000000E+00
 3 28 0.00000000E+00-1.60317824E-11-3.59005796E-07-6.21849727E-07-1.56487413E-11
 3 29-6.53122498E-11 8.09610602E-11-5.36718095E-11-2.22015125E-05-3.84540642E-05
 3 30 0.00000000E+00 0.00000000E+00-4.51398582E-06 0.00000000E+00 3.85397803E-07
 3 31 0.00000000E+00 5.67074968E-06 0.00000000E+00 0.00000000E+00 5.28536930E-06
 3 32 0.00000000E+00 2.12390888E-11 2.82576635E-11-4.51586318E-10 1.03932537E-11
 3 33 0.00000000E+00 4.37399570E-06-1.19101528E-10 0.00000000E+00-9.84758979E-07
 3 34 7.33200845E-10-1.41990142E-11 3.08737421E-05-1.46955576E-11 1.76783590E-11
 3 35 0.00000000E+00 0.00000000E+00 7.18049266E-07 0.00000000E+00-7.80663057E-11
 3 36 0.00000000E+00 7.22720827E-11 2.39028914E-11 4.44030222E-05 0.00000000E+00
 3 37-3.73480043E-11 0.00000000E+00-4.51398098E-06 0.00000000E+00 8.31335822E-06
 3 38 1.55347877E-11-2.25721723E-06 3.45727902E-11 0.00000000E+00 0.00000000E+00
 3 39 7.14202162E-11-5.28046816E-11 4.32878950E-10 6.90981680E-10 0.00000000E+00
 3 40 2.90984205E-11 1.03593913E-06 6.88248460E-11-1.22665380E-10-1.41507895E-05
 3 41 1.69148874E-10-3.25334943E-10-3.06724858E-05 0.00000000E+00 0.00000000E+00
 3 42 0.00000000E+00 0.00000000E+00 1.20025152E-06-2.07885517E-06 0.00000000E+00
 3 43 4.46228159E-11-3.61015659E-11-5.04799954E-11-8.68498347E-06 1.50428839E-05
 3 44 0.00000000E+00 0.00000000E+00 9.81362526E-07 0.00000000E+00-8.15023163E-08
 3 45 0.00000000E+00-1.23513367E-06 0.00000000E+00 0.00000000E+00 1.15364329E-06
 3 46 3.83005702E-11 0.00000000E+00 7.46760853E-11 2.64452852E-10 0.00000000E+00
 3 47 0.00000000E+00 1.03594751E-06 0.00000000E+00 1.84278151E-11-1.41508003E-05
 3 48 6.14231390E-11 1.06361265E-10-3.06724970E-05 0.00000000E+00 0.00000000E+00
 3 49 0.00000000E+00 0.00000000E+00 1.20022265E-06 2.07885413E-06 0.00000000E+00
 3 50 0.00000000E+00 0.00000000E+00 1.14520235E-11-8.68498563E-06-1.50428942E-05
 3 51 0.00000000E+00 0.00000000E+00 9.81357421E-07 0.00000000E+00-8.14892557E-08
 3 52 0.00000000E+00-1.23513989E-06 0.00000000E+00 0.00000000E+00-1.15364245E-06
 3 53-3.56522552E-11-2.08184060E-11 2.16733883E-10-5.14506872E-10 1.63516182E-11
 3 54 0.00000000E+00 1.03592094E-06-6.72384482E-11 0.00000000E+00-1.41508007E-05
 3 55 7.93720173E-11 0.00000000E+00-3.06723691E-05 0.00000000E+00 0.00000000E+00
 3 56 0.00000000E+00 0.00000000E+00-2.40044032E-06 0.00000000E+00 0.00000000E+00
 3 57 0.00000000E+00 0.00000000E+00 0.00000000E+00 1.73699602E-05 0.00000000E+00
 3 58 0.00000000E+00 0.00000000E+00 9.81333904E-07 0.00000000E+00-1.81189673E-06
 3 59 0.00000000E+00 4.95299135E-07 0.00000000E+00 0.00000000E+00 0.00000000E+00
 3 60 1.93253786E-05 4.92212752E-05-1.74607715E-04 3.12656464E-04 0.00000000E+00
 3 61 0.00000000E+00 1.91919140E-05-1.90010050E-11-1.74574480E-11-1.71454586E-04
 3 62-1.24833646E-10 0.00000000E+00 5.52538577E-04 1.09904212E-05 1.09904150E-05
 3 63-2.19808362E-05 0.00000000E+00-3.06350298E-11 0.00000000E+00 1.43579200E-05
 3 64 1.43579460E-05-2.87158660E-05-2.40225765E-11 7.00476929E-11 2.33096124E-11
 3 65-1.42165737E-06 0.00000000E+00-1.00503195E-04 0.00000000E+00 6.74195932E-05
 3 66 1.90736733E-06 6.74195918E-05-1.58486643E-11 0.00000000E+00 0.00000000E+00
 3 67-1.93253286E-05-4.92210404E-05 1.74606928E-04-3.12658831E-04 0.00000000E+00
 3 68 0.00000000E+00 1.91919009E-05 1.94205967E-11 0.00000000E+00-1.71453884E-04
 3 69 1.76812087E-10 0.00000000E+00 5.52542127E-04-1.09904427E-05-1.09904308E-05
 3 70 2.19808735E-05 0.00000000E+00-3.14350830E-11 0.00000000E+00-1.43576903E-05
 3 71-1.43577514E-05 2.87154417E-05-1.18586485E-11 8.02636332E-11-2.30044887E-11
 3 72 1.42166444E-06 0.00000000E+00-1.00503213E-04 0.00000000E+00 6.74196040E-05
 3 73-1.90736137E-06 6.74196061E-05 0.00000000E+00 0.00000000E+00 0.00000000E+00
 3 74 1.25018791E-06-9.44015727E-06-1.68265584E-04 4.97670625E-04 0.00000000E+00
 3 75 0.00000000E+00 4.62923901E-06 0.00000000E+00 0.00000000E+00-7.34125258E-05
 3 76 1.31664699E-10 2.73294014E-11 1.24616822E-04 5.71974628E-06 5.71975808E-06
 3 77-1.14395044E-05 0.00000000E+00-1.88368094E-11 0.00000000E+00 2.55092706E-06
 3 78 2.55091868E-06-5.10184574E-06 1.73552563E-11 2.27609436E-11 1.17065435E-11
 3 79 2.73537633E-07 0.00000000E+00-5.25548403E-06 0.00000000E+00 3.52547801E-06
 3 80-3.66989071E-07 3.52549372E-06 0.00000000E+00 0.00000000E+00 0.00000000E+00
 3 81-1.25019210E-06 9.44014078E-06 1.68266030E-04-4.97673093E-04 0.00000000E+00
 3 82 0.00000000E+00 4.62923348E-06 1.70529747E-11 0.00000000E+00-7.34124959E-05
 3 83-1.58757440E-10 1.52375587E-11 1.24617370E-04-5.71974988E-06-5.71976181E-06
 3 84 1.14395117E-05 0.00000000E+00-1.99046053E-11 0.00000000E+00-2.55085975E-06
 3 85-2.55084777E-06 5.10170752E-06 0.00000000E+00 2.41116901E-11-1.67758389E-11
 3 86-2.73552359E-07 0.00000000E+00-5.25546020E-06 0.00000000E+00 3.52546309E-06
 3 87 3.67007386E-07 3.52547666E-06 0.00000000E+00 0.00000000E+00 0.00000000E+00
 4  1 4.12484265E-11-1.72419327E-10-4.43715718E-11 1.43190143E-11 2.02285536E-10
 4  2-2.32423939E-10 6.51701958E-10 1.77701252E-10-5.13262651E-01 8.55219209E-01
 4  3-5.79000257E-08-2.65969686E-04 4.43169629E-04-3.89287191E-11-4.74329905E-03
 4  4 7.90347864E-03-5.45957830E-10 1.39159145E-03-2.31872641E-03 1.76484252E-10
 4  5-7.49005737E-04 1.24802375E-03-1.01196172E-10-5.17747073E-04 8.62689847E-04
 4  6 4.93471672E-10 3.14536233E-05-3.14535878E-05-3.00363623E-11 6.05168608E-05
 4  7 2.20333297E-11-1.47263810E-11-8.24106730E-05 8.24106083E-05 6.99458005E-11
 4  8-1.58558642E-04 0.00000000E+00 0.00000000E+00 2.14034966E-04-2.14034661E-04
 4  9-3.05910984E-10 4.11804543E-04-3.86883026E-11-1.61260221E-11-3.97247344E-04
 4 10 3.97246916E-04 4.26183548E-10-7.64306657E-04 2.00767888E-11-2.82118750E-11
 4 11 8.41498993E-05-1.40214030E-04 2.17094275E-11-6.27056196E-05-1.84398689E-11
 4 12 3.76329846E-05-1.06717154E-11-1.50531922E-04 2.50822481E-04-1.10825114E-11
 4 13-2.85742032E-05 4.76116320E-05 2.26754522E-11 2.12925705E-05-1.32548200E-11
 4 14-1.27788899E-05-1.71561332E-11 5.11152064E-05-8.51702779E-05 0.00000000E+00
 4 15-1.99608798E-06-7.74572648E-07 1.59638805E-11 2.72057410E-06 0.00000000E+00
 4 16-4.25916103E-06 0.00000000E+00 0.00000000E+00 0.00000000E+00 2.43351106E-06
 4 17 1.07285727E-06-1.07288116E-06 0.00000000E+00 0.00000000E+00 2.06423099E-06
 4 18 1.00105965E-05 7.61752294E-05-4.94214475E-04-6.09834619E-04-6.53800384E-06
 4 19 1.12177772E-05 1.04715062E-11-2.75486612E-05 4.69987491E-05-2.93696733E-11
 4 20-4.51674148E-04 7.80415742E-04 4.70820933E-11-2.27058951E-07 2.60239035E-06
 4 21-2.37533139E-06-2.87924738E-06 0.00000000E+00-2.66660283E-11 2.53271563E-05
 4 22-9.85979131E-05 7.32707568E-05 1.24887437E-04 4.17857913E-11-1.50660250E-11
 4 23-4.41946908E-05-3.05303342E-05 1.18556911E-11-1.36839803E-05-1.32370190E-11
 4 24 9.08420556E-05 0.00000000E+00-3.15486559E-05 5.46447218E-05 1.07239826E-11
 4 25-4.85853637E-06-3.69703919E-05 2.39859067E-04 2.95973241E-04 7.68979309E-07
 4 26 6.83234838E-06 1.19273091E-11-2.81398995E-06 3.21541830E-05-1.92492094E-11
 4 27 1.76171002E-04 4.03612350E-04 5.80239803E-11 1.08461063E-06-2.23743869E-06
 4 28 1.15282806E-06-7.47830489E-07 0.00000000E+00-3.65015524E-11-3.11016929E-05
 4 29 6.66624288E-05-3.55607359E-05 4.80723773E-05 0.00000000E+00 2.66904265E-11
 4 30 2.14387182E-05-1.56967959E-05 0.00000000E+00-5.45068727E-06-1.54105000E-11
 4 31-4.40933904E-05 0.00000000E+00 1.53303316E-05 2.65101488E-05 0.00000000E+00
 4 32-5.15222570E-06-3.92048400E-05 2.54358119E-04 3.13862144E-04-6.68236903E-06
 4 33 2.69689996E-06 0.00000000E+00-2.80353837E-05 1.81556328E-05 0.00000000E+00
 4 34-4.64073724E-04 4.82840792E-05 2.18075185E-11-2.08644432E-06 8.64076148E-07
 4 35 1.22236818E-06 1.26215170E-06-1.00431370E-11 0.00000000E+00 8.30074296E-05
 4 36-4.52970272E-05-3.77104024E-05-2.43646964E-05 0.00000000E+00 0.00000000E+00
 4 37 4.99764098E-05 8.71897128E-07 0.00000000E+00-1.14881108E-06 0.00000000E+00
 4 38-3.45757123E-05 0.00000000E+00-3.24746775E-05-2.09616712E-08 0.00000000E+00
 4 39-2.46364769E-06 3.91754115E-06 2.96857991E-04-6.09608232E-04-5.54547923E-07
 4 40 9.79438982E-07-1.48340624E-11 3.71040558E-05-6.46409322E-05 1.78455463E-11
 4 41-6.00016455E-05 1.04343451E-04 3.45940022E-11-1.44269896E-06 9.14866619E-06
 4 42-7.70596723E-06-1.05604470E-05 0.00000000E+00 0.00000000E+00 2.08683226E-07
 4 43-1.09645644E-05 1.07558811E-05 1.10620282E-05 1.42170165E-11-3.48562535E-11
 4 44-1.73006800E-06 2.46133364E-07 0.00000000E+00 7.66016021E-08 0.00000000E+00
 4 45 2.09207593E-06 1.12187379E-11 2.29053859E-07-4.06824162E-07 1.22141979E-11
 4 46 1.19567119E-06-1.90134677E-06-1.44075189E-04 2.95863494E-04 6.90044297E-07
 4 47 2.32435728E-07 0.00000000E+00-2.64729449E-05-2.64848530E-05 2.55871522E-11
 4 48 3.85409013E-05 4.52027695E-05-3.03495784E-11 9.53032910E-08-3.83528271E-06
 4 49 3.73997942E-06-5.52860026E-06 0.00000000E+00 0.00000000E+00 2.07266074E-06
 4 50 3.14754613E-06-5.22020688E-06 6.81810478E-06 1.46456059E-11-1.67292514E-11
 4 51 9.67076941E-07-9.29496295E-07 0.00000000E+00 1.31287664E-06 0.00000000E+00
 4 52-9.58336800E-07 0.00000000E+00-3.39133068E-07-6.58265033E-08 0.00000000E+00
 4 53 1.26802332E-06-2.01601098E-06-1.52785202E-04 3.13744387E-04-5.79579079E-07
 4 54-4.72103896E-07 0.00000000E+00 3.83604048E-05 9.49627942E-06 0.00000000E+00
 4 55-6.19472252E-05-1.05674351E-05 0.00000000E+00-7.42214037E-06 3.45610291E-06
 4 56 3.96603746E-06-7.83551755E-07 0.00000000E+00 0.00000000E+00 8.47509732E-06
 4 57-2.93955903E-06-5.53553830E-06 2.81603364E-06-1.27650376E-11 0.00000000E+00
 4 58 6.90246748E-07 8.04615331E-07-1.36748138E-11-1.33523728E-06 1.97072508E-11
 4 59-1.16629503E-06 0.00000000E+00 2.40231844E-07 2.55732534E-07 0.00000000E+00
 4 60 0.00000000E+00-5.61127428E-11-5.50510490E-11-2.78809945E-10-8.13166682E-07
 4 61 1.35494213E-06-3.09025003E-11-5.56811984E-06 9.27775898E-06 6.84433306E-11
 4 62 1.86951358E-06-3.11512566E-06-6.15693318E-10 1.33162529E-06-1.33161206E-06
 4 63-1.52716721E-11 2.56206491E-06-1.12390238E-06 1.87269742E-06 4.88091601E-06
 4 64-4.88079943E-06-1.17742038E-10 9.39087530E-06 2.22555783E-05-3.70831937E-05
 4 65 1.38798330E-05-2.31271515E-05 3.24428154E-11-1.03427704E-05 5.35155246E-06
 4 66 6.20727503E-06-5.35159723E-06-2.48290251E-05 4.13711001E-05 1.02964990E-05
 4 67 0.00000000E+00-1.23107944E-10 5.29865901E-10-1.00217528E-09-8.13180866E-07
 4 68 1.35494510E-06 3.53374534E-11-5.56810107E-06 9.27776964E-06 1.03541926E-10
 4 69 1.86954293E-06-3.11513206E-06 1.50206088E-09 1.33163466E-06-1.33162971E-06