 !#############################################################################
 !                   D_3h RHF GEOMETRY OPTIMIZATION AND HESSIAN TEMPLATE
 ! ---------------------------------------------------------------------------
 ! Replace the symmetry-correct coordinates, should only be two atoms.  
 ! The hydrogen or fluorine should have only one non-zero x,y,z coordinate.
 ! 
 ! Basis set?   gbasis=ccd for 2nd row, 
 !                         cct 3rd/4th,
 !                   SPKrTZP for heavy,
 !                   SPKrTZC beyond 4th
 ! 
 !#############################################################################
 $system kdiag=3 mwords=375 memddi=3750 parall=.t. $end
 $contrl runtyp=energy ispher=1 $end
 $contrl icut=9 itol=20 inttyp=rysquad qmttol=1.0d-05 nosym=1 $end
 $contrl scftyp=mcscf  mult=2 maxit=200 icharg=1 mplevl=2 $end
 $scf    npunch=2 conv=1.0d-06 dirscf=.t. $end
 $force  method=seminum $end
 $trans  dirtrf=.t. $end
 $statpt hssend=.t. $end
 $basis  gbasis=SPKrTZP $end
 !#############################################################################
 !
 !                       TURN ON THIS SECTION IF HEAVY ATOM
 !
 !#############################################################################
 !
 $contrl relwfn=LUT-IOTC $end
 $scf  diis=.t. soscf=.f. ethrsh=10.0 $end
 -guess iorder(43)=44 iorder(44)=43 $end
 $gmcpt nsolut=200 $end
 !
 !#############################################################################
 !
 ! TURN ON THIS SECTION IF GMCPT, CHANGE runtyp=energy, scftyp=mcscf, change nosym=1
 !
 !#############################################################################
 $guess  guess=moread norb=369 purify=.t. norder=1 $end
 $mcscf  cistep=gmcci fullnr=.t. finci=mos
         acurcy=1.d-6 maxit=100 $end
 $mrmp   mrpt=gmcpt rdvecs=.f. $end
 $gmcpt  nmofzc=19 nmodoc=24 nmoact=8 nelact=9 stsym(1)=A
         reftyp=ormas nspace=1 mstart(1)=44 mine(1)=9 maxe(1)=9
         kstate(1)=1,1,1,1,1
         wstate(1)=1,1,1,1,1
         iwgt=0 thrwgt=-1.0 krot=.f. kszdoe=.f. knospn=.f.
         thrde=-1.0 edshft=0.02 maxbas=8000 $end
 !#############################################################################
 !
 !             TURN OFF THIS SECTION IF temp.inp, add C1
 !
 !    IF SOC, $transt $end, turn knospn=.t., restart from gmcpt states calc
 !
 !#############################################################################
 -data
 Iron pentacarbonyl optimization
 C1
 FE         26.0  -0.0000000000   0.0000000000   0.0000000000
 C           6.0  -0.8824444078   1.5284385491   0.0000000000
 C           6.0  -0.8824444078  -1.5284385491   0.0000000000
 C           6.0   1.7648888155   0.0000000000   0.0000000000
 O           8.0  -1.4586915946   2.5265279545   0.0000000000
 O           8.0  -1.4586915946  -2.5265279545   0.0000000000
 O           8.0   2.9173831893   0.0000000000   0.0000000000
 C           6.0   0.0000000000   0.0000000000  -1.6781093310
 C           6.0  -0.0000000000   0.0000000000   1.6781093310
 O           8.0  -0.0000000000   0.0000000000  -2.8433375200
 O           8.0  -0.0000000000   0.0000000000   2.8433375200
 $end
Semi-canonical MOs --- generated at Wed Mar 27 14:52:37 2024
 $VEC   
 1  1 9.97431444E-01 1.19334613E-02 3.43580908E-03-7.24102571E-03 2.26774562E-03
 1  2-3.51374538E-03 6.98889817E-04-7.90272220E-05-1.46354177E-11-0.00000000E+00
 1  3-0.00000000E+00-0.00000000E+00-0.00000000E+00-0.00000000E+00 5.70423325E-11
 1  4 3.48155541E-11 3.75853717E-11-1.64729808E-10-1.20541289E-10-5.18766823E-11
 1  5 3.44133806E-10 2.68610345E-10-0.00000000E+00-2.73017682E-10-8.93660785E-10
 1  6 7.92002159E-10 2.65432949E-06 2.65426087E-06-5.30859037E-06-1.99308654E-11
 1  7-0.00000000E+00-0.00000000E+00-1.72386878E-05-1.72385702E-05 3.44772580E-05
 1  8 3.45181664E-11-0.00000000E+00-0.00000000E+00 1.34169197E-04 1.34168741E-04
 1  9-2.68337937E-04-1.83827134E-10-0.00000000E+00-0.00000000E+00-4.78839335E-05
 1 10-4.78831110E-05 9.57670444E-05 2.12181837E-10-0.00000000E+00-0.00000000E+00
 1 11 1.58843185E-05-0.00000000E+00-0.00000000E+00-0.00000000E+00-0.00000000E+00
 1 12-2.13110440E-05-0.00000000E+00-0.00000000E+00-0.00000000E+00-0.00000000E+00
 1 13-1.12898310E-04-0.00000000E+00-0.00000000E+00-0.00000000E+00-0.00000000E+00
 1 14 1.51469024E-04-0.00000000E+00-4.67619222E-11-0.00000000E+00-0.00000000E+00
 1 15-1.77037840E-05-1.77037868E-05-4.72101354E-05-0.00000000E+00-0.00000000E+00
 1 16-0.00000000E+00-0.00000000E+00-0.00000000E+00-0.00000000E+00-1.03663113E-05
 1 17 4.14651347E-05 4.14651395E-05-0.00000000E+00-0.00000000E+00-0.00000000E+00
 1 18-2.99859986E-05-1.94011701E-04 5.33453768E-04 3.63285542E-05-1.45358103E-05
 1 19 2.51767784E-05-0.00000000E+00 1.12348263E-04-1.94592963E-04-0.00000000E+00
 1 20-1.06357518E-04 1.84216680E-04-2.56337408E-11 1.56354132E-06-5.21957536E-06
 1 21 3.65603404E-06 6.78310157E-06-0.00000000E+00-0.00000000E+00-2.59680515E-05
 1 22 1.41965630E-04-1.15997579E-04-1.67933276E-04-0.00000000E+00-0.00000000E+00
 1 23-3.74040595E-05-2.81294680E-05-0.00000000E+00-1.25798700E-05-0.00000000E+00
 1 24 7.92348111E-05-0.00000000E+00-2.90519994E-05 5.03195116E-05-0.00000000E+00
 1 25-2.99860253E-05-1.94011807E-04 5.33454498E-04 3.63275096E-05-1.45358128E-05
 1 26-2.51767819E-05-0.00000000E+00 1.12348277E-04 1.94592979E-04-0.00000000E+00
 1 27-1.06358253E-04-1.84217803E-04-2.58698972E-11 1.56353914E-06-5.21958005E-06
 1 28 3.65604091E-06-6.78310132E-06-0.00000000E+00-0.00000000E+00-2.59680635E-05
 1 29 1.41965741E-04-1.15997678E-04 1.67933435E-04-0.00000000E+00-0.00000000E+00
 1 30-3.74040745E-05 2.81294774E-05-0.00000000E+00 1.25798767E-05-0.00000000E+00
 1 31 7.92348446E-05-0.00000000E+00-2.90520126E-05-5.03195309E-05-0.00000000E+00
 1 32-2.99859793E-05-1.94011398E-04 5.33454186E-04 3.63281617E-05 2.90716363E-05
 1 33-0.00000000E+00-0.00000000E+00-2.24696322E-04-0.00000000E+00-0.00000000E+00
 1 34 2.12715817E-04 7.53077715E-11-2.61320697E-11-8.61102572E-06 4.95502767E-06
 1 35 3.65599805E-06-0.00000000E+00-0.00000000E+00-0.00000000E+00 2.25932072E-04
 1 36-1.09934520E-04-1.15997552E-04-0.00000000E+00-0.00000000E+00-0.00000000E+00
 1 37-8.61256683E-05-0.00000000E+00-0.00000000E+00-0.00000000E+00-0.00000000E+00
 1 38 5.74457836E-05-0.00000000E+00 5.81039257E-05-0.00000000E+00-0.00000000E+00
 1 39-4.05471120E-07 1.67518663E-05 5.44973816E-06-3.68950730E-04-1.31013795E-06
 1 40 2.26923143E-06-0.00000000E+00 2.95493630E-05-5.11810319E-05-0.00000000E+00
 1 41-5.34563884E-05 9.25889315E-05-0.00000000E+00-1.15999721E-06 5.84068015E-06
 1 42-4.68068294E-06-7.00074181E-06-0.00000000E+00-0.00000000E+00-4.19515516E-06
 1 43 1.99763347E-05-1.57811795E-05-2.41714001E-05-0.00000000E+00-0.00000000E+00
 1 44-6.66879158E-06-4.75843058E-06-0.00000000E+00-2.12803045E-06-0.00000000E+00
 1 45 1.38615739E-05-0.00000000E+00-4.91445113E-06 8.51213500E-06-0.00000000E+00
 1 46-4.05471692E-07 1.67519148E-05 5.44969066E-06-3.68951841E-04-1.31013833E-06
 1 47-2.26922704E-06-0.00000000E+00 2.95493577E-05 5.11810388E-05-0.00000000E+00
 1 48-5.34565221E-05-9.25892248E-05-0.00000000E+00-1.16000030E-06 5.84068508E-06
 1 49-4.68068478E-06 7.00074503E-06-0.00000000E+00-0.00000000E+00-4.19514870E-06
 1 50 1.99763265E-05-1.57811778E-05 2.41714022E-05-0.00000000E+00-0.00000000E+00
 1 51-6.66878814E-06 4.75843536E-06-0.00000000E+00 2.12803248E-06-0.00000000E+00
 1 52 1.38615769E-05-0.00000000E+00-4.91445870E-06-8.51214343E-06-0.00000000E+00
 1 53-4.05460961E-07 1.67518033E-05 5.44963226E-06-3.68951350E-04 2.62023553E-06
 1 54-0.00000000E+00-0.00000000E+00-5.90985369E-05-0.00000000E+00-0.00000000E+00
 1 55 1.06912804E-04-2.74770267E-11-0.00000000E+00 9.34106801E-06-4.66038805E-06
 1 56-4.68067996E-06-0.00000000E+00-0.00000000E+00-0.00000000E+00 3.20618603E-05
 1 57-1.62807558E-05-1.57811045E-05-0.00000000E+00-0.00000000E+00-0.00000000E+00
 1 58-1.49105602E-05-0.00000000E+00-0.00000000E+00-0.00000000E+00-0.00000000E+00
 1 59 1.01756902E-05-0.00000000E+00 9.82892551E-06-0.00000000E+00-0.00000000E+00
 1 60-4.40960622E-05-2.52931762E-04 7.68382989E-04 7.20883993E-07-0.00000000E+00
 1 61-0.00000000E+00-2.99022437E-05-1.51059465E-11-0.00000000E+00 3.09177396E-04
 1 62 3.67285649E-11-0.00000000E+00-2.00032483E-04-2.40236197E-06-2.40232520E-06
 1 63 4.80468717E-06-0.00000000E+00-3.76073048E-11-0.00000000E+00-1.74859424E-04
 1 64-1.74859467E-04 3.49718892E-04-0.00000000E+00 6.08819395E-11-0.00000000E+00
 1 65-1.66979241E-07-0.00000000E+00 9.06145625E-05-0.00000000E+00-6.07860781E-05
 1 66 2.23984652E-07-6.07861148E-05 4.28961749E-11-0.00000000E+00-0.00000000E+00
 1 67-4.40960562E-05-2.52931700E-04 7.68383173E-04 7.20205643E-07-0.00000000E+00
 1 68-0.00000000E+00 2.99022579E-05-0.00000000E+00-0.00000000E+00-3.09177589E-04
 1 69 4.20464735E-11-0.00000000E+00 2.00033862E-04-2.40235011E-06-2.40231382E-06
 1 70 4.80466394E-06-0.00000000E+00 3.70183770E-11-0.00000000E+00-1.74859377E-04
 1 71-1.74859419E-04 3.49718796E-04-0.00000000E+00-6.34305622E-11-0.00000000E+00
 1 72-1.66978209E-07-0.00000000E+00-9.06146335E-05-0.00000000E+00 6.07861258E-05
 1 73 2.23985450E-07 6.07861624E-05 4.06877130E-11-0.00000000E+00-0.00000000E+00
 1 74 6.35921983E-07 2.34337253E-05-8.64146807E-05-3.75727355E-04-0.00000000E+00
 1 75-0.00000000E+00-2.92507065E-06-0.00000000E+00-0.00000000E+00 4.83864598E-05
 1 76 3.31540036E-11-0.00000000E+00-1.22564020E-04-3.44333638E-06-3.44332859E-06
 1 77 6.88666496E-06-0.00000000E+00-0.00000000E+00-0.00000000E+00-2.06632699E-05
 1 78-2.06632460E-05 4.13265159E-05-0.00000000E+00 2.17728109E-11-0.00000000E+00
 1 79-1.33500394E-07-0.00000000E+00 1.61887573E-05-0.00000000E+00-1.08597522E-05
 1 80 1.79109947E-07-1.08597448E-05-0.00000000E+00-0.00000000E+00-0.00000000E+00
 1 81 6.35905035E-07 2.34336470E-05-8.64140904E-05-3.75728764E-04-0.00000000E+00
 1 82-0.00000000E+00 2.92509365E-06-0.00000000E+00-0.00000000E+00-4.83866276E-05
 1 83 3.12426755E-11-0.00000000E+00 1.22564393E-04-3.44334911E-06-3.44334075E-06
 1 84 6.88668986E-06-0.00000000E+00-0.00000000E+00-0.00000000E+00-2.06632596E-05
 1 85-2.06632355E-05 4.13264952E-05-0.00000000E+00-2.05694461E-11-0.00000000E+00
 1 86-1.33501602E-07-0.00000000E+00-1.61887609E-05-0.00000000E+00 1.08597538E-05
 1 87 1.79111973E-07 1.08597482E-05-0.00000000E+00-0.00000000E+00-0.00000000E+00
 2  1-3.20541588E-01 1.04830716E+00 2.73994477E-02-1.41605643E-02 4.61701430E-03
 2  2-1.08213127E-02 1.49417451E-03-2.46450074E-04-1.74112159E-10 1.40170665E-11
 2  3 0.00000000E+00 3.56236022E-11 1.77068931E-11 0.00000000E+00-2.80625419E-10
 2  4-6.91068625E-11 2.73578502E-11 6.68517343E-10 2.26296351E-10-8.05270797E-11
 2  5-8.75673989E-10-4.55466758E-10 1.61267343E-10-3.31937577E-09 1.11263830E-10
 2  6-9.56874886E-10-5.90217328E-04-5.90217379E-04 1.18043471E-03 0.00000000E+00
 2  7 0.00000000E+00 0.00000000E+00 1.72576181E-04 1.72576249E-04-3.45152431E-04
 2  8-1.77606726E-11 0.00000000E+00 0.00000000E+00 3.52789203E-04 3.52788628E-04
 2  9-7.05577832E-04 1.60457061E-10 2.14612027E-11 0.00000000E+00-1.15440006E-04
 2 10-1.15438027E-04 2.30878032E-04-5.79269137E-11-2.81249342E-11 0.00000000E+00
 2 11 8.46659348E-05 0.00000000E+00 0.00000000E+00 0.00000000E+00 0.00000000E+00
 2 12-1.13591275E-04 0.00000000E+00 0.00000000E+00 0.00000000E+00 0.00000000E+00
 2 13-4.68769839E-04 0.00000000E+00 3.01742819E-11 0.00000000E+00-1.98017183E-11
 2 14 6.28920652E-04-2.06813291E-11 8.79560176E-11 0.00000000E+00 0.00000000E+00
 2 15-9.26778445E-05-9.26778131E-05-2.47140764E-04 0.00000000E+00 0.00000000E+00
 2 16 0.00000000E+00 0.00000000E+00 0.00000000E+00 0.00000000E+00-5.42664807E-05
 2 17 2.17066248E-04 2.17066193E-04 0.00000000E+00 0.00000000E+00 0.00000000E+00
 2 18-1.86098675E-05-8.28219803E-04 1.45689240E-03 2.97636311E-05-1.32979315E-04
 2 19 2.30327042E-04 0.00000000E+00 4.18361310E-04-7.24622865E-04 0.00000000E+00
 2 20-3.66848016E-04 6.35399644E-04-4.11304561E-11 3.27286254E-06-1.90814913E-05
 2 21 1.58086288E-05 2.23543799E-05 0.00000000E+00 0.00000000E+00-8.65029546E-05
 2 22 4.49433711E-04-3.62930756E-04-5.35936362E-04 0.00000000E+00 0.00000000E+00
 2 23-1.64457822E-04-1.17936752E-04 0.00000000E+00-5.27429468E-05 0.00000000E+00
 2 24 3.42447877E-04 0.00000000E+00-1.21804556E-04 2.10971704E-04 0.00000000E+00
 2 25-1.86098278E-05-8.28219602E-04 1.45689183E-03 2.97635138E-05-1.32979304E-04
 2 26-2.30327027E-04 0.00000000E+00 4.18361259E-04 7.24622771E-04 0.00000000E+00
 2 27-3.66847986E-04-6.35399628E-04-3.83981447E-11 3.27285915E-06-1.90814817E-05
 2 28 1.58086226E-05-2.23543707E-05 0.00000000E+00 0.00000000E+00-8.65029220E-05
 2 29 4.49433532E-04-3.62930610E-04 5.35936109E-04 0.00000000E+00 0.00000000E+00
 2 30-1.64457799E-04 1.17936736E-04 0.00000000E+00 5.27429445E-05 0.00000000E+00
 2 31 3.42447835E-04 0.00000000E+00-1.21804544E-04-2.10971680E-04 0.00000000E+00
 2 32-1.86098407E-05-8.28219759E-04 1.45688930E-03 2.97668629E-05 2.65958756E-04
 2 33 0.00000000E+00 0.00000000E+00-8.36724262E-04 0.00000000E+00 0.00000000E+00
 2 34 7.33690365E-04 0.00000000E+00-3.68791427E-11-3.02588897E-05 1.44501862E-05
 2 35 1.58087034E-05 0.00000000E+00 0.00000000E+00 0.00000000E+00 7.17401390E-04
 2 36-3.54470917E-04-3.62930473E-04 0.00000000E+00 0.00000000E+00 0.00000000E+00
 2 37-3.68730476E-04 0.00000000E+00 0.00000000E+00 0.00000000E+00 0.00000000E+00
 2 38 2.51094614E-04 0.00000000E+00 2.43609232E-04 0.00000000E+00 0.00000000E+00
 2 39-1.40622611E-05 7.58074245E-05 2.35680652E-04-1.17927130E-03 1.77162103E-05
 2 40-3.06851761E-05 0.00000000E+00 1.78276475E-04-3.08783679E-04 0.00000000E+00
 2 41-1.36378605E-04 2.36214565E-04 1.12641483E-11-5.71311879E-06 2.73204299E-05
 2 42-2.16073111E-05-3.30335967E-05 0.00000000E+00 0.00000000E+00-1.75154511E-05
 2 43 8.49538366E-05-6.74383855E-05-1.02469240E-04 0.00000000E+00 0.00000000E+00
 2 44-2.48416200E-05-1.72934168E-05 0.00000000E+00-7.73380932E-06 0.00000000E+00
 2 45 5.11890738E-05 0.00000000E+00-1.78605432E-05 3.09353626E-05 0.00000000E+00
 2 46-1.40622568E-05 7.58074194E-05 2.35680764E-04-1.17927099E-03 1.77162074E-05
 2 47 3.06851709E-05 0.00000000E+00 1.78276463E-04 3.08783677E-04 0.00000000E+00
 2 48-1.36378563E-04-2.36214453E-04 1.56755718E-11-5.71311519E-06 2.73204254E-05
 2 49-2.16073102E-05 3.30335936E-05 0.00000000E+00 0.00000000E+00-1.75154583E-05
 2 50 8.49538305E-05-6.74383722E-05 1.02469219E-04 0.00000000E+00 0.00000000E+00
 2 51-2.48416178E-05 1.72934135E-05 0.00000000E+00 7.73380560E-06 0.00000000E+00
 2 52 5.11890637E-05 0.00000000E+00-1.78605360E-05-3.09353545E-05 0.00000000E+00
 2 53-1.40623101E-05 7.58073576E-05 2.35681541E-04-1.17926566E-03-3.54320866E-05
 2 54 0.00000000E+00 0.00000000E+00-3.56553275E-04 0.00000000E+00 0.00000000E+00
 2 55 2.72755297E-04 0.00000000E+00 1.03680190E-11 4.38372191E-05-2.22299314E-05
 2 56-2.16072877E-05 0.00000000E+00 0.00000000E+00 0.00000000E+00 1.36188780E-04
 2 57-6.87502218E-05-6.74385584E-05 0.00000000E+00 0.00000000E+00 0.00000000E+00
 2 58-5.47946586E-05 0.00000000E+00 0.00000000E+00 0.00000000E+00 0.00000000E+00
 2 59 3.77936635E-05 0.00000000E+00 3.57210854E-05 0.00000000E+00 0.00000000E+00
 2 60-2.65400866E-04-5.94941920E-04 2.63313546E-03 2.58877854E-04 0.00000000E+00
 2 61 0.00000000E+00 5.54384491E-05-1.72341532E-11 0.00000000E+00 1.54869984E-03
 2 62-9.97531343E-11-2.72883506E-11-3.08396961E-04-8.98968017E-06-8.98972638E-06
 2 63 1.79794065E-05 0.00000000E+00 0.00000000E+00 0.00000000E+00-5.46415673E-04
 2 64-5.46415525E-04 1.09283120E-03 0.00000000E+00 1.15252682E-11 0.00000000E+00
 2 65 3.24956212E-07 0.00000000E+00 3.97629799E-04 0.00000000E+00-2.66738163E-04
 2 66-4.35974223E-07-2.66738193E-04 0.00000000E+00 0.00000000E+00 0.00000000E+00
 2 67-2.65400860E-04-5.94941899E-04 2.63313519E-03 2.58879004E-04-1.27959675E-11
 2 68 0.00000000E+00-5.54384454E-05 0.00000000E+00 0.00000000E+00-1.54869980E-03
 2 69-7.51911606E-11-2.92520872E-11 3.08395715E-04-8.98967932E-06-8.98972478E-06
 2 70 1.79794041E-05 0.00000000E+00 0.00000000E+00 0.00000000E+00-5.46415633E-04
 2 71-5.46415478E-04 1.09283111E-03 0.00000000E+00-1.59241536E-11 0.00000000E+00
 2 72 3.24959927E-07 0.00000000E+00-3.97629790E-04 0.00000000E+00 2.66738156E-04
 2 73-4.35974369E-07 2.66738188E-04 0.00000000E+00 0.00000000E+00 0.00000000E+00
 2 74 1.16643269E-05 5.68562520E-05-6.02896085E-05-1.00763149E-03 3.46360333E-11
 2 75 0.00000000E+00-9.13047402E-05-6.31691543E-11 0.00000000E+00 1.87508201E-04
 2 76 4.84445711E-11 0.00000000E+00-3.59830543E-04-1.42979180E-05-1.42979020E-05
 2 77 2.85958200E-05 0.00000000E+00 0.00000000E+00 0.00000000E+00-7.78851073E-05
 2 78-7.78851249E-05 1.55770232E-04 0.00000000E+00 0.00000000E+00 0.00000000E+00
 2 79-4.78406846E-07 0.00000000E+00 5.37369871E-05 0.00000000E+00-3.60478452E-05
 2 80 6.41852396E-07-3.60478884E-05 0.00000000E+00 0.00000000E+00 0.00000000E+00
 2 81 1.16643299E-05 5.68562168E-05-6.02895958E-05-1.00763068E-03 1.16706297E-11
 2 82 0.00000000E+00 9.13047407E-05-6.70561802E-11 0.00000000E+00-1.87508186E-04
 2 83 2.43582925E-11 0.00000000E+00 3.59830328E-04-1.42979145E-05-1.42979008E-05
 2 84 2.85958153E-05 0.00000000E+00 0.00000000E+00 0.00000000E+00-7.78851039E-05
 2 85-7.78851219E-05 1.55770226E-04 0.00000000E+00 0.00000000E+00 0.00000000E+00
 2 86-4.78405689E-07 0.00000000E+00-5.37369702E-05 0.00000000E+00 3.60478308E-05
 2 87 6.41851163E-07 3.60478801E-05 0.00000000E+00 0.00000000E+00 0.00000000E+00
 3  1-0.00000000E+00 6.59730544E-11 1.89463145E-10-1.09753033E-10-4.14288841E-10
 3  2 3.85217775E-10 1.40999977E-09 3.84556025E-11 5.41665944E-09-3.26117484E-08
 3  3 9.97452716E-01-0.00000000E+00-1.41795315E-11 5.75969230E-04 8.21212927E-11
 3  4-3.22720562E-10 8.91385343E-03-5.43107509E-11 5.29817732E-11-2.42800820E-03
 3  5 2.38837323E-11 1.04270078E-10 9.34886306E-04 1.13381816E-10 2.09672742E-10
 3  6 5.11235443E-04-1.60126442E-11-1.55612526E-11 3.15754995E-11-0.00000000E+00
 3  7-1.20755554E-10-0.00000000E+00-0.00000000E+00 1.09393759E-11-1.48102150E-11
 3  8-0.00000000E+00 1.10303367E-10-0.00000000E+00 2.95243992E-11-2.28215919E-11
 3  9-0.00000000E+00 5.47554720E-11-7.20865664E-11-0.00000000E+00-1.82453946E-10
 3 10-1.36016488E-10 3.18470422E-10-1.44201963E-10 1.75382275E-10-0.00000000E+00
 3 11-1.74377370E-11 1.86476865E-11-2.56548731E-04-0.00000000E+00 1.72098112E-04
 3 12 2.14803982E-11 1.72098130E-04-0.00000000E+00-2.69221586E-11-0.00000000E+00
 3 13-0.00000000E+00-0.00000000E+00-7.35110295E-05-0.00000000E+00 4.93126734E-05
 3 14-0.00000000E+00 4.93127221E-05-1.31383466E-11 1.33814884E-11-0.00000000E+00
 3 15-0.00000000E+00-0.00000000E+00-0.00000000E+00-0.00000000E+00 1.83836769E-06
 3 16-0.00000000E+00-0.00000000E+00-2.06208760E-11-0.00000000E+00-0.00000000E+00
 3 17-0.00000000E+00-0.00000000E+00-0.00000000E+00-2.46640348E-06-0.00000000E+00
 3 18-1.52274031E-11 3.64990845E-11-4.15495687E-10-9.33995284E-11-0.00000000E+00
 3 19-0.00000000E+00 4.37394289E-06 3.02563510E-11-6.24628004E-11-9.84673119E-07
 3 20 1.57312133E-11-1.85777594E-11 3.08743632E-05-0.00000000E+00-0.00000000E+00
 3 21-0.00000000E+00 1.92920281E-11-3.59029499E-07 6.21882987E-07-0.00000000E+00
 3 22-6.75110283E-11 6.78944277E-11 6.44204918E-11-2.22015209E-05 3.84541081E-05
 3 23-1.21645857E-11-1.63028592E-11-4.51409019E-06-0.00000000E+00 3.85403280E-07
 3 24 2.87237991E-11 5.67088424E-06-1.24018444E-11 2.11742580E-11-5.28549034E-06
 3 25-0.00000000E+00-3.26012944E-11 8.03863685E-11 2.07586588E-10-0.00000000E+00
 3 26-0.00000000E+00 4.37394132E-06-2.17534818E-11 1.51350446E-11-9.84675408E-07
 3 27 5.58219906E-11 1.27616413E-10 3.08743547E-05-0.00000000E+00-0.00000000E+00
 3 28-0.00000000E+00-0.00000000E+00-3.59031667E-07-6.21882389E-07-2.82562798E-11
 3 29 4.35280671E-11-1.52717182E-11 5.25141645E-11-2.22015198E-05-3.84541092E-05
 3 30-0.00000000E+00-0.00000000E+00-4.51409115E-06-0.00000000E+00 3.85402335E-07
 3 31-0.00000000E+00 5.67088646E-06-0.00000000E+00-0.00000000E+00 5.28549106E-06
 3 32-0.00000000E+00 1.15635698E-11 6.58993657E-11-4.65716904E-11-0.00000000E+00
 3 33-0.00000000E+00 4.37394544E-06 4.98822339E-11-0.00000000E+00-9.84724227E-07
 3 34 2.12554446E-10-0.00000000E+00 3.08741356E-05-0.00000000E+00-0.00000000E+00
 3 35-0.00000000E+00-0.00000000E+00 7.18093981E-07-0.00000000E+00-1.13041022E-11
 3 36-0.00000000E+00 1.89540166E-11-1.66018411E-11 4.44030851E-05-0.00000000E+00
 3 37-0.00000000E+00-0.00000000E+00-4.51411087E-06-0.00000000E+00 8.31360365E-06
 3 38-0.00000000E+00-2.25728839E-06-0.00000000E+00-0.00000000E+00-0.00000000E+00
 3 39 7.63838209E-11-0.00000000E+00 1.53865332E-10 1.73497070E-10-0.00000000E+00
 3 40-0.00000000E+00 1.03596882E-06 3.39461055E-11-4.66013527E-11-1.41508932E-05
 3 41 4.61738833E-11-9.78845232E-11-3.06726064E-05-0.00000000E+00-0.00000000E+00
 3 42-0.00000000E+00-0.00000000E+00 1.20025603E-06-2.07884321E-06-0.00000000E+00
 3 43-0.00000000E+00-0.00000000E+00-0.00000000E+00-8.68504664E-06 1.50429674E-05
 3 44-0.00000000E+00-0.00000000E+00 9.81376591E-07-0.00000000E+00-8.15044121E-08
 3 45-0.00000000E+00-1.23515045E-06-0.00000000E+00-0.00000000E+00 1.15367259E-06
 3 46-0.00000000E+00-0.00000000E+00-5.21505193E-11 3.46092166E-11-0.00000000E+00
 3 47-0.00000000E+00 1.03597065E-06-0.00000000E+00-0.00000000E+00-1.41508864E-05
 3 48 1.12061321E-11 1.52511364E-11-3.06726024E-05-0.00000000E+00-0.00000000E+00
 3 49-0.00000000E+00-0.00000000E+00 1.20022693E-06 2.07884209E-06-0.00000000E+00
 3 50-0.00000000E+00-0.00000000E+00-0.00000000E+00-8.68504857E-06-1.50429679E-05
 3 51-0.00000000E+00-0.00000000E+00 9.81370675E-07-0.00000000E+00-8.14936170E-08
 3 52-0.00000000E+00-1.23515331E-06-0.00000000E+00-0.00000000E+00-1.15367331E-06
 3 53-2.51365874E-11-0.00000000E+00-0.00000000E+00-2.07709299E-10-0.00000000E+00
 3 54-0.00000000E+00 1.03595115E-06 2.30587445E-11-0.00000000E+00-1.41508842E-05
 3 55 6.02465731E-11-0.00000000E+00-3.06725430E-05-0.00000000E+00-0.00000000E+00
 3 56-0.00000000E+00-0.00000000E+00-2.40044286E-06-0.00000000E+00-0.00000000E+00
 3 57-0.00000000E+00-0.00000000E+00-0.00000000E+00 1.73701023E-05-0.00000000E+00
 3 58-0.00000000E+00-0.00000000E+00 9.81372129E-07-0.00000000E+00-1.81195031E-06
 3 59-0.00000000E+00 4.95301438E-07-0.00000000E+00-0.00000000E+00-0.00000000E+00
 3 60 1.93248607E-05 4.92193317E-05-1.74599638E-04 3.12660320E-04-0.00000000E+00
 3 61-0.00000000E+00 1.91916220E-05-0.00000000E+00-1.37912631E-11-1.71448228E-04
 3 62-1.17565463E-10-0.00000000E+00 5.52542870E-04 1.09902939E-05 1.09902741E-05
 3 63-2.19805680E-05-0.00000000E+00-2.59548257E-11-0.00000000E+00 1.43563025E-05
 3 64 1.43563467E-05-2.87126492E-05-0.00000000E+00 8.72039442E-11-0.00000000E+00
 3 65-1.42164912E-06-0.00000000E+00-1.00502133E-04-0.00000000E+00 6.74188751E-05
 3 66 1.90735680E-06 6.74188861E-05-1.63903769E-11-0.00000000E+00-0.00000000E+00
 3 67-1.93248315E-05-4.92190871E-05 1.74599124E-04-3.12661076E-04-0.00000000E+00
 3 68-0.00000000E+00 1.91916158E-05 1.45407163E-11-0.00000000E+00-1.71447874E-04
 3 69 1.31821216E-10-0.00000000E+00 5.52543855E-04-1.09903188E-05-1.09902949E-05
 3 70 2.19806136E-05-0.00000000E+00-2.50435705E-11-0.00000000E+00-1.43561704E-05
 3 71-1.43562315E-05 2.87124019E-05-0.00000000E+00 7.87708991E-11-0.00000000E+00
 3 72 1.42163652E-06-0.00000000E+00-1.00502104E-04-0.00000000E+00 6.74188542E-05
 3 73-1.90734458E-06 6.74188674E-05 2.10718858E-11-0.00000000E+00-0.00000000E+00
 3 74 1.25019019E-06-9.43999235E-06-1.68265553E-04 4.97671524E-04-1.09406649E-11
 3 75-0.00000000E+00 4.62909358E-06-0.00000000E+00-0.00000000E+00-7.34115206E-05
 3 76 1.22028671E-10-0.00000000E+00 1.24616936E-04 5.71970630E-06 5.71972265E-06
 3 77-1.14394290E-05-0.00000000E+00-0.00000000E+00-0.00000000E+00 2.55063516E-06
 3 78 2.55061642E-06-5.10125159E-06-0.00000000E+00 1.58911592E-11-0.00000000E+00
 3 79 2.73536463E-07-0.00000000E+00-5.25535856E-06-0.00000000E+00 3.52538853E-06
 3 80-3.66986692E-07 3.52541486E-06-0.00000000E+00-0.00000000E+00-0.00000000E+00
 3 81-1.25018744E-06 9.44006444E-06 1.68265541E-04-4.97672048E-04 1.04664402E-11
 3 82-0.00000000E+00 4.62907973E-06-0.00000000E+00-0.00000000E+00-7.34114344E-05
 3 83-1.23559941E-10-1.58343230E-11 1.24617067E-04-5.71970827E-06-5.71972479E-06
 3 84 1.14394331E-05-0.00000000E+00-0.00000000E+00-0.00000000E+00-2.55058682E-06
 3 85-2.55056729E-06 5.10115411E-06-0.00000000E+00 1.71712312E-11-0.00000000E+00
 3 86-2.73551868E-07-0.00000000E+00-5.25534418E-06-0.00000000E+00 3.52537913E-06
 3 87 3.67008074E-07 3.52540498E-06-0.00000000E+00-0.00000000E+00-0.00000000E+00
 4  1-1.64815972E-11 6.86663580E-11 4.81842423E-11-3.62528641E-11-1.75628294E-10
 4  2 4.05091378E-10-1.55962819E-09-2.28339643E-10 2.97027253E-01 9.52162409E-01
 4  3 2.95195419E-08 1.53918556E-04 4.93407506E-04 1.22204584E-11 2.74496670E-03
 4  4 8.79937455E-03 2.90356808E-10-8.05318546E-04-2.58156090E-03-1.16122108E-10
 4  5 4.33451876E-04 1.38949016E-03 1.13540798E-10 2.99621982E-04 9.60477302E-04
 4  6-6.24950771E-10-1.82022147E-05 1.82022809E-05-6.93699350E-11 6.73765643E-05
 4  7-0.00000000E+00-0.00000000E+00 4.76913095E-05-4.76912588E-05-5.37818472E-11
 4  8-1.76531654E-04-0.00000000E+00-1.28242465E-11-1.23862866E-04 1.23862549E-04
 4  9 3.16897811E-10 4.58483776E-04-1.15699765E-11-0.00000000E+00 2.29888424E-04
 4 10-2.29887848E-04-5.74911176E-10-8.50942208E-04 3.69140756E-11 1.39287918E-11
 4 11-4.86980304E-05-1.56108379E-04-0.00000000E+00-6.98138135E-05-0.00000000E+00
 4 12-2.17784395E-05-0.00000000E+00 8.71137033E-05 2.79255182E-04 2.02602718E-11
 4 13 1.65359461E-05 5.30084065E-05-0.00000000E+00 2.37061219E-05-0.00000000E+00
 4 14 7.39515638E-06-0.00000000E+00-2.95804561E-05-9.48243622E-05-1.41497707E-11
 4 15 1.15512153E-06 4.48230282E-07-1.28908222E-11 3.02890686E-06-0.00000000E+00
 4 16-4.74190337E-06-0.00000000E+00-0.00000000E+00-0.00000000E+00-1.40825008E-06
 4 17-6.20859643E-07 6.20879746E-07-0.00000000E+00-0.00000000E+00 2.29822598E-06
 4 18 6.78651209E-06 5.16411931E-05-3.35042420E-04-4.13425055E-04-2.39839609E-06
 4 19 8.77920805E-06-0.00000000E+00-4.98347273E-06 3.97668504E-05-1.91187550E-11
 4 20-2.69789073E-04 5.50091334E-04-0.00000000E+00-9.78311094E-07 2.58864699E-06
 4 21-1.61033589E-06-1.40239738E-06-0.00000000E+00-1.68422514E-11 3.30834317E-05
 4 22-8.27557543E-05 4.96723226E-05 7.40558874E-05-1.50360062E-11 3.10985523E-11
 4 23-2.99521372E-05-2.14414435E-05-0.00000000E+00-8.26955086E-06-0.00000000E+00
 4 24 6.15886593E-05-0.00000000E+00-2.14036503E-05 3.70362660E-05-0.00000000E+00
 4 25-9.76805931E-06-7.43290400E-05 4.82238689E-04 5.95058019E-04 5.73695634E-06
 4 26 1.13171385E-05-0.00000000E+00 2.25544220E-05 4.83573730E-05 1.10063047E-11
 4 27 4.29223827E-04 7.68149134E-04 1.89780889E-11 4.82047855E-07-2.79986371E-06
 4 28 2.31781585E-06-2.63585121E-06-0.00000000E+00-0.00000000E+00-2.97416605E-05
 4 29 1.01236841E-04-7.14951810E-05 1.18508944E-04-0.00000000E+00-0.00000000E+00
 4 30 4.31210850E-05-3.00256735E-05-0.00000000E+00-1.30341836E-05-0.00000000E+00
 4 31-8.86422811E-05-0.00000000E+00 3.07892748E-05 5.33178519E-05-0.00000000E+00
 4 32 2.98158703E-06 2.26877958E-05-1.47197174E-04-1.81632934E-04 3.86712168E-06
 4 33 3.00262007E-06-0.00000000E+00 1.62240419E-05 2.02135933E-05 1.26316668E-11
 4 34 2.68561167E-04 5.37571587E-05-0.00000000E+00 1.20742836E-06-5.00048817E-07
 4 35-7.07379544E-07 1.40517598E-06-0.00000000E+00-0.00000000E+00-4.80364971E-05
 4 36 2.62134659E-05 2.18230312E-05-2.71264274E-05 3.34009259E-11-0.00000000E+00
 4 37-2.89215342E-05 9.70713224E-07-0.00000000E+00-1.27898662E-06-0.00000000E+00
 4 38 2.00090840E-05-0.00000000E+00 1.87932260E-05-2.33618316E-08-0.00000000E+00
 4 39-1.67017803E-06 2.65588509E-06 2.01249155E-04-4.13272076E-04-7.32039864E-07
 4 40 4.58496710E-07-0.00000000E+00 3.23157333E-05-3.96871806E-05-0.00000000E+00
 4 41-4.86466032E-05 6.61363935E-05-0.00000000E+00-4.66303135E-07 5.69042328E-06
 4 42-5.22412014E-06-7.50041680E-06-0.00000000E+00-0.00000000E+00-1.69775743E-06
 4 43-5.59397190E-06 7.29172933E-06 8.72542257E-06-0.00000000E+00-0.00000000E+00
 4 44-1.28067809E-06-7.20590407E-07-0.00000000E+00 1.13121396E-06-0.00000000E+00
 4 45 1.37006582E-06-0.00000000E+00 3.48144141E-07-1.64440481E-07-0.00000000E+00
 4 46 2.40396342E-06-3.82263967E-06-2.89665136E-04 5.94837463E-04 6.53627587E-07
 4 47 8.90765787E-07-0.00000000E+00-3.84680312E-05-6.17682813E-05-0.00000000E+00
 4 48 6.10660326E-05 1.00361277E-04-1.39640439E-11 1.24604116E-06-8.76529217E-06
 4 49 7.51925101E-06-1.04123526E-05-0.00000000E+00-0.00000000E+00 3.77554242E-07
 4 50 1.01176682E-05-1.04952224E-05 1.11813736E-05-0.00000000E+00-0.00000000E+00
 4 51 1.72221479E-06-4.02587122E-08-0.00000000E+00 4.15784398E-07-0.00000000E+00
 4 52-2.02615779E-06-0.00000000E+00-2.84435814E-07-3.61771667E-07-0.00000000E+00
 4 53-7.33815356E-07 1.16663341E-06 8.84173592E-05-1.81565398E-04 3.35430456E-07
 4 54-5.25627781E-07-0.00000000E+00-2.21993555E-05 1.05726822E-05-0.00000000E+00
 4 55 3.58492506E-05-1.17652786E-05-3.02942677E-11 4.29520475E-06-2.00005300E-06
 4 56-2.29515175E-06-8.72358582E-07-0.00000000E+00-0.00000000E+00-4.90456692E-06
 4 57 1.70113432E-06 3.20343259E-06 3.13525716E-06 1.71047103E-11-0.00000000E+00
 4 58-3.99460745E-07 8.95818575E-07-0.00000000E+00-1.48658639E-06-0.00000000E+00
 4 59 6.74945610E-07-0.00000000E+00-1.39012782E-07 2.84719650E-07-0.00000000E+00
 4 60-0.00000000E+00-3.87725626E-11 2.66520797E-10 2.57282744E-10 4.70573577E-07
 4 61 1.50848915E-06-1.48855327E-11 3.22226930E-06 1.03294276E-05 3.82364690E-11
 4 62-1.08189461E-06-3.46821748E-06 1.92417964E-10-7.70608856E-07 7.70620093E-07
 4 63-0.00000000E+00 2.85248970E-06 6.50383538E-07 2.08497197E-06-2.82462081E-06
 4 64 2.82452841E-06 9.30693682E-11 1.04553512E-05-1.28793699E-05-4.12867102E-05
 4 65-8.03231511E-06-2.57487075E-05-1.47049133E-11-1.15151761E-05-3.09694982E-06
 4 66-3.59215524E-06 3.09697037E-06 1.43686368E-05 4.60606923E-05 1.14636317E-05
 4 67-0.00000000E+00-5.34118142E-11 3.23702903E-10 8.44937443E-10 4.70566589E-07
 4 68 1.50849104E-06-0.00000000E+00 3.22226624E-06 1.03294000E-05 1.05036053E-10
 4 69-1.08192853E-06-3.46821501E-06-1.01990111E-09-7.70631336E-07 7.70603062E-07