 !Step 2: Sinple point gmcpt calculation for RhF3 model.
 $system kdiag=3 mwords=200 memddi=3000 parall=.t. $end
 $contrl runtyp=energy ispher=1 relwfn=LUT-IOTC $end
 $contrl icut=9 itol=20 inttyp=rysquad qmttol=1.0d-05 nosym=1 $end
 $scf    npunch=2 conv=1.0d-06 dirscf=.t. diis=.t. soscf=.f. ethrsh=10.0 $end
 $contrl scftyp=mcscf  mult=5 maxit=200 icharg=0 mplevl=2 $end
 $guess  guess=moread norb=168 purify=.t. $end
 $basis  gbasis=SPKrTZP $end
 $mcscf  cistep=gmcci fullnr=.t. finci=mos
         acurcy=1.d-6 maxit=200 $end
 $trans  dirtrf=.t. $end
 $mrmp   mrpt=gmcpt rdvecs=.f. $end
 $gmcpt  nmofzc=21 nmodoc=12 nmoact=5 nelact=6 stsym(1)=A nsolut=100
         reftyp=ormas nspace=1 mstart(1)=34 mine(1)=6 maxe(1)=6
         kstate(1)=1,1,1,1,1,1,1,1,1,1,1,1,1,1,1
         wstate(1)=1,1,1,1,1,1,1,1,1,1,1,1,1,1,1
         iwgt=0 thrwgt=-1.0 krot=.f. kszdoe=.f. knospn=.t.
         thrde=-1.0 edshft=0.02 $end
 $statpt hssend=.t. $end
 $transt $end
 -data
 RhF3 3 state calculation
 C1
 RH         45.0   0.0000000000  -0.0000000000   0.0000000000
 F           9.0  -0.9363534495   1.6218117484   0.0000000000
 F           9.0  -0.9363534495  -1.6218117484   0.0000000000
 F           9.0   1.8727068990   0.0000000000   0.0000000000
 $end
--- Semi-canonical MOs --- generated at Sun Dec 17 12:34:05 2023
 $VEC   
 1  1 9.95688317E-01 1.09627311E-02-1.14679346E-02-1.18674700E-02 1.44354883E-02
 1  2 8.86700168E-03-5.22678619E-03 1.12219247E-03-2.66857068E-04 0.00000000E+00
 1  3 0.00000000E+00 0.00000000E+00-3.83866846E-11 0.00000000E+00 0.00000000E+00
 1  4 1.89342487E-10 0.00000000E+00 0.00000000E+00-2.96489190E-10 0.00000000E+00
 1  5 0.00000000E+00 3.22781073E-10 0.00000000E+00 0.00000000E+00-2.50888733E-10
 1  6 0.00000000E+00 0.00000000E+00 1.22295857E-10 0.00000000E+00 0.00000000E+00
 1  7 2.14873092E-06 2.14869775E-06-4.29742867E-06 0.00000000E+00 0.00000000E+00
 1  8 0.00000000E+00-9.81155057E-06-9.81150459E-06 1.96230552E-05 0.00000000E+00
 1  9 0.00000000E+00 0.00000000E+00 4.39525685E-05 4.39525698E-05-8.79051384E-05
 1 10 0.00000000E+00 0.00000000E+00 0.00000000E+00-1.51404581E-04-1.51404546E-04
 1 11 3.02809127E-04 0.00000000E+00 0.00000000E+00 0.00000000E+00 2.63553462E-05
 1 12 2.63553598E-05-5.27107060E-05 0.00000000E+00 0.00000000E+00 0.00000000E+00
 1 13 4.64995094E-05 0.00000000E+00 0.00000000E+00 0.00000000E+00 0.00000000E+00
 1 14-6.23856386E-05 0.00000000E+00 0.00000000E+00 0.00000000E+00 0.00000000E+00
 1 15-1.75208041E-04 0.00000000E+00 0.00000000E+00 0.00000000E+00 0.00000000E+00
 1 16 2.35066252E-04 0.00000000E+00 0.00000000E+00 0.00000000E+00 0.00000000E+00
 1 17-1.23751233E-05-1.23750911E-05-3.30002877E-05 0.00000000E+00 0.00000000E+00
 1 18 0.00000000E+00 0.00000000E+00 0.00000000E+00 0.00000000E+00-7.24612242E-06
 1 19 2.89845131E-05 2.89844566E-05 0.00000000E+00 0.00000000E+00 0.00000000E+00
 1 20-6.35881612E-06-4.60512406E-05 7.79598075E-05 1.54244526E-04-8.90322305E-06
 1 21 1.54208272E-05 0.00000000E+00 3.51739993E-05-6.09231302E-05 0.00000000E+00
 1 22 9.03290347E-05-1.56454525E-04 0.00000000E+00 1.60422887E-06-6.37118005E-06
 1 23 4.76695118E-06 7.97540656E-06 0.00000000E+00 0.00000000E+00-1.04892185E-05
 1 24 4.93745492E-05-3.88853307E-05-5.98637332E-05 0.00000000E+00 0.00000000E+00
 1 25 7.51985521E-06 6.84432945E-06 0.00000000E+00 3.06087654E-06 0.00000000E+00
 1 26-1.71577452E-05 0.00000000E+00 7.06880069E-06-1.22435081E-05 0.00000000E+00
 1 27-6.35881615E-06-4.60512401E-05 7.79598082E-05 1.54244523E-04-8.90322227E-06
 1 28-1.54208283E-05 0.00000000E+00 3.51739999E-05 6.09231301E-05 0.00000000E+00
 1 29 9.03290333E-05 1.56454525E-04 0.00000000E+00 1.60423016E-06-6.37118158E-06
 1 30 4.76695141E-06-7.97540291E-06 0.00000000E+00 0.00000000E+00-1.04892181E-05
 1 31 4.93745491E-05-3.88853310E-05 5.98637348E-05 0.00000000E+00 0.00000000E+00
 1 32 7.51985966E-06-6.84432435E-06 0.00000000E+00-3.06088289E-06 0.00000000E+00
 1 33-1.71577528E-05 0.00000000E+00 7.06880233E-06 1.22435076E-05 0.00000000E+00
 1 34-6.35882707E-06-4.60512689E-05 7.79599902E-05 1.54244340E-04 1.78064837E-05
 1 35 0.00000000E+00 0.00000000E+00-7.03480687E-05 0.00000000E+00 0.00000000E+00
 1 36-1.80658091E-04 0.00000000E+00 0.00000000E+00-1.03588377E-05 5.59192612E-06
 1 37 4.76691157E-06 0.00000000E+00 0.00000000E+00 0.00000000E+00 7.93064159E-05
 1 38-4.04210752E-05-3.88853406E-05 0.00000000E+00 0.00000000E+00 0.00000000E+00
 1 39 1.93746005E-05 0.00000000E+00 0.00000000E+00 0.00000000E+00 0.00000000E+00
 1 40-1.18561614E-05 0.00000000E+00-1.41375928E-05 0.00000000E+00 0.00000000E+00
 2  1-3.51688064E-01 1.04693108E+00 2.82966950E-02 1.44062087E-04-9.38272580E-03
 2  2 4.09913691E-03-3.24147158E-03 5.99972407E-04-1.67488167E-04-1.37643340E-10
 2  3-0.00000000E+00-0.00000000E+00-5.26867846E-11-0.00000000E+00-0.00000000E+00
 2  4 1.00898645E-10-0.00000000E+00-0.00000000E+00-7.78286984E-11-0.00000000E+00
 2  5-0.00000000E+00 2.51716122E-11-0.00000000E+00-0.00000000E+00 2.47134977E-11
 2  6-0.00000000E+00-0.00000000E+00-4.96056792E-11-1.75373281E-11-0.00000000E+00
 2  7-1.85263554E-06-1.85260743E-06 3.70524297E-06-0.00000000E+00-0.00000000E+00
 2  8-0.00000000E+00-2.82191034E-06-2.82194783E-06 5.64385817E-06-0.00000000E+00
 2  9-0.00000000E+00-0.00000000E+00 3.52136017E-05 3.52136723E-05-7.04272741E-05
 2 10-0.00000000E+00-0.00000000E+00-0.00000000E+00-1.46150431E-04-1.46150507E-04
 2 11 2.92300937E-04-0.00000000E+00-0.00000000E+00-0.00000000E+00 1.97911165E-05
 2 12 1.97912331E-05-3.95823496E-05-0.00000000E+00-0.00000000E+00-0.00000000E+00
 2 13 4.37080402E-05-0.00000000E+00-0.00000000E+00-0.00000000E+00-0.00000000E+00
 2 14-5.86405619E-05-0.00000000E+00 7.97360191E-11-0.00000000E+00-0.00000000E+00
 2 15-1.79748859E-04-0.00000000E+00-0.00000000E+00-0.00000000E+00-0.00000000E+00
 2 16 2.41158459E-04-0.00000000E+00-6.14506859E-11-0.00000000E+00-0.00000000E+00
 2 17-1.29269209E-05-1.29268789E-05-3.44717516E-05-0.00000000E+00-0.00000000E+00
 2 18-0.00000000E+00-0.00000000E+00-0.00000000E+00-0.00000000E+00-7.56923378E-06
 2 19 3.02769233E-05 3.02768495E-05-0.00000000E+00-0.00000000E+00-0.00000000E+00
 2 20-5.79413878E-06-4.99001027E-05 5.96781052E-05 1.89445555E-04-1.02749204E-05
 2 21 1.77966487E-05-0.00000000E+00 3.07680041E-05-5.32917387E-05-0.00000000E+00
 2 22 9.46647701E-05-1.63964183E-04-0.00000000E+00 2.59339128E-06-1.17339950E-05
 2 23 9.14060374E-06 1.43274357E-05-0.00000000E+00-0.00000000E+00-1.26498159E-05
 2 24 6.10084224E-05-4.83586064E-05-7.36582426E-05-0.00000000E+00-0.00000000E+00
 2 25-8.21273591E-07 7.79863219E-07-0.00000000E+00 3.48772391E-07-0.00000000E+00
 2 26 2.96401845E-07-0.00000000E+00 8.05452302E-07-1.39506869E-06-0.00000000E+00
 2 27-5.79414067E-06-4.99000994E-05 5.96781247E-05 1.89445512E-04-1.02749186E-05
 2 28-1.77966464E-05-0.00000000E+00 3.07680030E-05 5.32917419E-05-0.00000000E+00
 2 29 9.46647627E-05 1.63964169E-04-0.00000000E+00 2.59339257E-06-1.17339952E-05
 2 30 9.14060264E-06-1.43274329E-05-0.00000000E+00-0.00000000E+00-1.26498154E-05
 2 31 6.10084189E-05-4.83586035E-05 7.36582403E-05-0.00000000E+00-0.00000000E+00
 2 32-8.21266381E-07-7.79857686E-07-0.00000000E+00-3.48780803E-07-0.00000000E+00
 2 33 2.96389405E-07-0.00000000E+00 8.05455069E-07 1.39506968E-06-0.00000000E+00
 2 34-5.79413938E-06-4.99001247E-05 5.96780955E-05 1.89445609E-04 2.05497741E-05
 2 35-0.00000000E+00-0.00000000E+00-6.15359822E-05-0.00000000E+00-0.00000000E+00
 2 36-1.89329518E-04-0.00000000E+00-0.00000000E+00-1.88976984E-05 9.75710324E-06
 2 37 9.14059519E-06-0.00000000E+00-0.00000000E+00-0.00000000E+00 9.78375565E-05
 2 38-4.94789244E-05-4.83586321E-05-0.00000000E+00-0.00000000E+00-0.00000000E+00
 2 39 5.29499906E-07-0.00000000E+00-0.00000000E+00-0.00000000E+00-0.00000000E+00
 2 40 9.00475581E-07-0.00000000E+00-1.61087425E-06-0.00000000E+00-0.00000000E+00
 3  1-4.93535516E-11 1.18163791E-10-2.00442279E-11-2.19827339E-10 4.99714673E-11
 3  2 3.12926455E-10-1.04751993E-10-1.28458988E-10 1.17043283E-10 9.93411693E-01
 3  3-3.50421223E-03 0.00000000E+00 1.32161108E-02-4.66191990E-05 0.00000000E+00
 3  4 4.54313869E-03-1.60257026E-05 0.00000000E+00-4.69645433E-03 1.65665156E-05
 3  5 0.00000000E+00 2.71744701E-03-9.58566257E-06 0.00000000E+00-1.57759952E-03
 3  6 5.56490575E-06 0.00000000E+00 1.42005688E-04-5.00917172E-07 0.00000000E+00
 3  7 6.19206666E-09-6.19869835E-09 0.00000000E+00 2.53221560E-11 0.00000000E+00
 3  8 0.00000000E+00-8.76296815E-06 8.76296534E-06 0.00000000E+00-3.56929637E-08
 3  9 0.00000000E+00 0.00000000E+00 7.46366102E-05-7.46365710E-05-3.66185186E-11
 3 10 3.04006586E-07 0.00000000E+00 0.00000000E+00-2.90913529E-04 2.90913476E-04
 3 11 5.19762289E-11-1.18493536E-06 0.00000000E+00 0.00000000E+00 4.71003295E-05
 3 12-4.71003264E-05 0.00000000E+00 1.91845945E-07 0.00000000E+00 0.00000000E+00
 3 13 1.79073987E-05-6.31672343E-08 0.00000000E+00-2.82495026E-08 0.00000000E+00
 3 14 8.00837696E-06 0.00000000E+00-3.20336735E-05 1.12997240E-07 0.00000000E+00
 3 15-7.00138398E-05 2.46970735E-07 0.00000000E+00 1.10448003E-07 0.00000000E+00
 3 16-3.13110649E-05 0.00000000E+00 1.25244488E-04-4.41794014E-07 0.00000000E+00
 3 17-5.25731657E-05-1.66892423E-05 0.00000000E+00 1.36846285E-07 0.00000000E+00
 3 18-2.32531008E-07 0.00000000E+00 0.00000000E+00 0.00000000E+00 6.08338718E-05
 3 19 3.15172095E-05-3.15172127E-05 0.00000000E+00 0.00000000E+00 1.28374527E-07
 3 20 4.44922689E-06 3.80880158E-05-5.40025777E-05-1.07037494E-04 5.55436616E-06
 3 21-1.05396398E-05 0.00000000E+00-1.58714916E-05 3.01889722E-05 0.00000000E+00
 3 22-7.08511727E-05 1.11773790E-04 0.00000000E+00-3.18710220E-06 8.44393426E-06
 3 23-5.25683206E-06-6.35690632E-06 0.00000000E+00 0.00000000E+00 1.39217855E-05
 3 24-4.47570527E-05 3.08352672E-05 4.16310392E-05 0.00000000E+00 0.00000000E+00
 3 25 2.83861795E-07 7.53355923E-06 0.00000000E+00-9.51705556E-06 0.00000000E+00
 3 26 2.83267865E-06 0.00000000E+00-3.21351921E-06-5.90274778E-07 0.00000000E+00
 3 27 4.39518990E-06 3.76254275E-05-5.33467031E-05-1.05737495E-04 5.48044707E-06
 3 28 1.04153630E-05 0.00000000E+00-1.56597642E-05-2.98332685E-05 0.00000000E+00
 3 29-7.00675651E-05-1.10371872E-04 0.00000000E+00-3.18048835E-06 8.37347485E-06
 3 30-5.19298650E-06 6.25830330E-06 0.00000000E+00 0.00000000E+00 1.38564386E-05
 3 31-4.43172037E-05 3.04607651E-05-4.10562614E-05 0.00000000E+00 0.00000000E+00
 3 32 3.04594417E-07-7.57291373E-06 0.00000000E+00 9.55205101E-06 0.00000000E+00
 3 33 2.80908876E-06 0.00000000E+00-3.21774505E-06 6.08078916E-07 0.00000000E+00
 3 34-8.84442514E-06-7.57135870E-05 1.07349667E-04 2.12774778E-04 2.36649612E-05
 3 35 1.87702900E-09 0.00000000E+00-6.77464242E-05-5.50900197E-09 0.00000000E+00
 3 36-2.62843197E-04 2.23351532E-08 0.00000000E+00-2.04826659E-05 1.00328547E-05
 3 37 1.04498112E-05-1.07621051E-08 0.00000000E+00 0.00000000E+00 1.21876747E-04
 3 38-6.05807194E-05-6.12960274E-05 3.47892032E-08 0.00000000E+00 0.00000000E+00
 3 39 4.22416537E-06 2.23774054E-08 0.00000000E+00-4.25864386E-08 0.00000000E+00
 3 40-3.48947246E-06 0.00000000E+00-2.17784009E-06 1.25639988E-08 0.00000000E+00
 4  1 0.00000000E+00 0.00000000E+00 0.00000000E+00 0.00000000E+00 0.00000000E+00
 4  2 0.00000000E+00 0.00000000E+00 0.00000000E+00 0.00000000E+00 3.50421223E-03
 4  3 9.93411693E-01 0.00000000E+00 4.66191996E-05 1.32161108E-02 0.00000000E+00
 4  4 1.60257014E-05 4.54313869E-03 0.00000000E+00-1.65665144E-05-4.69645433E-03
 4  5 0.00000000E+00 9.58566140E-06 2.71744700E-03 0.00000000E+00-5.56490475E-06
 4  6-1.57759952E-03 0.00000000E+00 5.00919476E-07 1.42005687E-04 0.00000000E+00
 4  7 2.65432339E-11-1.68766706E-11 0.00000000E+00-7.15320092E-09 0.00000000E+00
 4  8 0.00000000E+00-3.09109002E-08 3.09107705E-08 0.00000000E+00 1.01186013E-05
 4  9 0.00000000E+00 0.00000000E+00 2.63277318E-07-2.63276304E-07 0.00000000E+00
 4 10-8.61829130E-05 0.00000000E+00 0.00000000E+00-1.02618264E-06 1.02618225E-06
 4 11 0.00000000E+00 3.35917980E-04 0.00000000E+00 0.00000000E+00 1.66143898E-07
 4 12-1.66143860E-07 0.00000000E+00-5.43867738E-05 0.00000000E+00 0.00000000E+00
 4 13 6.31677096E-08 1.79073575E-05 0.00000000E+00 8.00843183E-06 0.00000000E+00
 4 14 2.82488005E-08 0.00000000E+00-1.12997176E-07-3.20336730E-05 0.00000000E+00
 4 15-2.46971191E-07-7.00138121E-05 0.00000000E+00-3.13111012E-05 0.00000000E+00
 4 16-1.10446942E-07 0.00000000E+00 4.41793565E-07 1.25244487E-04 0.00000000E+00
 4 17-1.85449136E-07-5.88703884E-08 0.00000000E+00-3.87946102E-05 0.00000000E+00
 4 18 6.59203069E-05 0.00000000E+00 0.00000000E+00 0.00000000E+00 2.14588604E-07
 4 19 1.11175081E-07-1.11175695E-07 0.00000000E+00 0.00000000E+00-3.63929411E-05
 4 20-7.64389743E-06-6.54363109E-05 9.27780943E-05 1.83893148E-04-1.04580281E-05
 4 21 1.75788230E-05 0.00000000E+00 2.99555075E-05-5.03136294E-05 0.00000000E+00
 4 22 1.10824293E-04-1.98323449E-04 0.00000000E+00 9.26446421E-07-9.95782032E-06
 4 23 9.03137390E-06 1.39541357E-05 0.00000000E+00 0.00000000E+00-9.21373535E-06
 4 24 6.21895442E-05-5.29758089E-05-8.13261859E-05 0.00000000E+00 0.00000000E+00
 4 25 2.93987172E-06 5.60493597E-06 0.00000000E+00-4.99393873E-06 0.00000000E+00
 4 26-3.33375420E-06 0.00000000E+00-6.10497605E-07-2.52587197E-06 0.00000000E+00
 4 27 7.67509528E-06 6.57033838E-05-9.31567578E-05-1.84643704E-04 1.04969508E-05
 4 28 1.76527426E-05 0.00000000E+00-3.00667290E-05-5.05253557E-05 0.00000000E+00
 4 29-1.11321378E-04-1.99107056E-04 0.00000000E+00-9.48907688E-07 1.00171421E-05
 4 30-9.06823436E-06 1.39986341E-05 0.00000000E+00 0.00000000E+00 9.31172081E-06
 4 31-6.25037484E-05 5.31920276E-05-8.16178597E-05 0.00000000E+00 0.00000000E+00
 4 32-2.93779652E-06 5.55164843E-06 0.00000000E+00-4.92667345E-06 0.00000000E+00
 4 33 3.35365581E-06 0.00000000E+00 5.87811824E-07-2.52164451E-06 0.00000000E+00
 4 34-3.11984660E-08-2.67077247E-07 3.78674191E-07 7.50549563E-07 8.34767896E-08
 4 35-5.31797957E-07 0.00000000E+00-2.38972906E-07 1.56130002E-06 0.00000000E+00
 4 36-9.27165022E-07-6.33143997E-06 0.00000000E+00-7.22521227E-08 3.53906309E-08
 4 37 3.68614918E-08 3.05122276E-06 0.00000000E+00 0.00000000E+00 4.29914674E-07
 4 38-2.13696110E-07-2.16218564E-07-9.86262093E-06 0.00000000E+00 0.00000000E+00
 4 39 1.49005016E-08-6.34398157E-06 0.00000000E+00 1.20729325E-05 0.00000000E+00
 4 40-1.23087566E-08 0.00000000E+00-7.68236413E-09-3.56158805E-06 0.00000000E+00
 5  1 0.00000000E+00 0.00000000E+00 0.00000000E+00 0.00000000E+00 0.00000000E+00
 5  2 0.00000000E+00 0.00000000E+00 0.00000000E+00 0.00000000E+00 0.00000000E+00
 5  3 0.00000000E+00 9.93405755E-01 0.00000000E+00 0.00000000E+00 1.32676885E-02
 5  4 0.00000000E+00 0.00000000E+00 4.37326225E-03 0.00000000E+00 0.00000000E+00
 5  5-4.38894345E-03 0.00000000E+00 0.00000000E+00 2.25610308E-03 0.00000000E+00
 5  6 0.00000000E+00-1.09548799E-03 0.00000000E+00 0.00000000E+00 2.94605376E-04
 5  7 0.00000000E+00 0.00000000E+00 0.00000000E+00 0.00000000E+00 0.00000000E+00
 5  8 0.00000000E+00 0.00000000E+00 0.00000000E+00 0.00000000E+00 0.00000000E+00
 5  9-2.56312852E-11 0.00000000E+00 0.00000000E+00 0.00000000E+00 0.00000000E+00
 5 10 0.00000000E+00-1.94268093E-11 0.00000000E+00 0.00000000E+00 0.00000000E+00
 5 11 0.00000000E+00 0.00000000E+00 0.00000000E+00 0.00000000E+00 0.00000000E+00
 5 12 0.00000000E+00 0.00000000E+00 0.00000000E+00 1.78718691E-11 0.00000000E+00
 5 13 0.00000000E+00 0.00000000E+00-2.37111001E-06 0.00000000E+00 1.59058165E-06
 5 14 0.00000000E+00 1.59059625E-06 0.00000000E+00 0.00000000E+00 0.00000000E+00
 5 15 0.00000000E+00 0.00000000E+00 1.22690573E-05 0.00000000E+00-8.23031630E-06
 5 16 0.00000000E+00-8.23035140E-06 0.00000000E+00 0.00000000E+00 0.00000000E+00
 5 17 0.00000000E+00 0.00000000E+00 0.00000000E+00 0.00000000E+00-7.23173336E-06
 5 18 0.00000000E+00 0.00000000E+00 0.00000000E+00 0.00000000E+00 0.00000000E+00
 5 19 0.00000000E+00 0.00000000E+00 0.00000000E+00 9.70238293E-06 0.00000000E+00
 5 20 0.00000000E+00 0.00000000E+00 0.00000000E+00 0.00000000E+00 0.00000000E+00
 5 21 0.00000000E+00-4.49726647E-06 0.00000000E+00 0.00000000E+00 1.16270456E-05
 5 22 0.00000000E+00 0.00000000E+00-1.08409992E-05 0.00000000E+00 0.00000000E+00
 5 23 0.00000000E+00 0.00000000E+00-3.62875885E-06 6.28521147E-06 0.00000000E+00
 5 24 0.00000000E+00 0.00000000E+00 0.00000000E+00 1.16456849E-05-2.01709209E-05
 5 25 0.00000000E+00 0.00000000E+00-6.32186442E-06 0.00000000E+00 7.22619180E-07
 5 26 0.00000000E+00 7.75905197E-06 0.00000000E+00 0.00000000E+00-7.03646172E-06
 5 27 0.00000000E+00 0.00000000E+00 0.00000000E+00 0.00000000E+00 0.00000000E+00
 5 28 0.00000000E+00-4.49726619E-06 0.00000000E+00 0.00000000E+00 1.16270465E-05
 5 29 0.00000000E+00 0.00000000E+00-1.08410007E-05 0.00000000E+00 0.00000000E+00
 5 30 0.00000000E+00 0.00000000E+00-3.62875904E-06-6.28521204E-06 0.00000000E+00
 5 31 0.00000000E+00 0.00000000E+00 0.00000000E+00 1.16456846E-05 2.01709209E-05
 5 32 0.00000000E+00 0.00000000E+00-6.32186378E-06 0.00000000E+00 7.22618004E-07
 5 33 0.00000000E+00 7.75905229E-06 0.00000000E+00 0.00000000E+00 7.03646190E-06
 5 34 0.00000000E+00 0.00000000E+00 0.00000000E+00 0.00000000E+00 0.00000000E+00
 5 35 0.00000000E+00-4.49729468E-06 0.00000000E+00 0.00000000E+00 1.16270502E-05
 5 36 0.00000000E+00 0.00000000E+00-1.08409693E-05 0.00000000E+00 0.00000000E+00
 5 37 0.00000000E+00 0.00000000E+00 7.25753222E-06 0.00000000E+00 0.00000000E+00
 5 38 0.00000000E+00 0.00000000E+00 0.00000000E+00-2.32913724E-05 0.00000000E+00
 5 39 0.00000000E+00 0.00000000E+00-6.32188736E-06 0.00000000E+00 1.12773220E-05
 5 40 0.00000000E+00-2.79562010E-06 0.00000000E+00 0.00000000E+00 0.00000000E+00
 6  1 2.32643483E-09 3.22296749E-09 5.17613542E-08 3.74355156E-08-8.30161362E-08
 6  2 5.86098019E-08-9.95964855E-08-1.10241381E-07 1.13656087E-07-2.59379890E-06
 6  3-2.75398608E-07-0.00000000E+00 6.91730305E-06 7.34446417E-07-0.00000000E+00
 6  4 1.87446223E-05 1.99025360E-06-0.00000000E+00-6.88519161E-05-7.31046238E-06
 6  5-0.00000000E+00 1.25352567E-04 1.33094967E-05-0.00000000E+00-1.98949586E-04
 6  6-2.11237366E-05-0.00000000E+00 1.10720339E-04 1.17558716E-05-0.00000000E+00
 6  7-2.03834229E-05 2.03695006E-05 1.39232904E-08 2.49819514E-06-0.00000000E+00
 6  8-0.00000000E+00 4.21369761E-05-4.21092556E-05-2.77210337E-08-5.16436898E-06
 6  9-0.00000000E+00-0.00000000E+00-1.13038354E-05 1.13060364E-05-2.20176617E-09
 6 10 1.38599991E-06-0.00000000E+00-0.00000000E+00-2.37097459E-05 2.36503003E-05
 6 11 5.94417550E-08 2.90321702E-06-0.00000000E+00-0.00000000E+00 5.64132435E-05
 6 12-5.63749827E-05-3.82653893E-08-6.91401987E-06-0.00000000E+00-0.00000000E+00
 6 13 1.15198291E-06 1.21596509E-07-0.00000000E+00 5.43750427E-08-0.00000000E+00
 6 14 5.03061472E-07-0.00000000E+00-2.04860871E-06-2.17513879E-07-0.00000000E+00
 6 15-1.11609037E-05-1.18062888E-06-0.00000000E+00-5.27981669E-07-0.00000000E+00
 6 16-4.91715906E-06-0.00000000E+00 1.98910826E-05 2.11196153E-06-0.00000000E+00
 6 17-1.06429983E-05-3.70667880E-06-7.68205424E-09-8.72906704E-07-0.00000000E+00
 6 18 1.42962751E-06-0.00000000E+00-0.00000000E+00-0.00000000E+00 1.25967182E-05
 6 19 6.09898695E-06-6.08549159E-06-0.00000000E+00-0.00000000E+00-7.46919338E-07
 6 20-3.30043018E-01-2.70516473E-03-3.70278126E-04 9.37841590E-05-1.02563787E-04
 6 21 1.86655554E-04-0.00000000E+00 3.71587994E-05-7.21754591E-05-0.00000000E+00
 6 22-1.33350266E-05 5.64017376E-05-0.00000000E+00-6.30469144E-07 5.33980233E-06
 6 23-4.70933318E-06-6.32546706E-06-0.00000000E+00-0.00000000E+00 1.10571382E-06
 6 24-9.76331865E-06 8.65760483E-06 1.18367795E-05-0.00000000E+00-0.00000000E+00
 6 25 3.11738278E-06 3.03627931E-06-0.00000000E+00 4.15152775E-07-0.00000000E+00
 6 26-6.43922283E-06-0.00000000E+00 2.25681495E-06-4.48874893E-06-0.00000000E+00
 6 27-4.79008073E-01-3.92613876E-03-5.37410159E-04 1.36101427E-04-1.51067946E-04
 6 28-2.69626394E-04-0.00000000E+00 5.58487617E-05 1.03644677E-04-0.00000000E+00
 6 29-2.75355584E-05-7.71504098E-05-0.00000000E+00-9.90932133E-07 7.82548193E-06
 6 30-6.83454980E-06 9.13057090E-06-0.00000000E+00-0.00000000E+00 1.81161368E-06
 6 31-1.43763393E-05 1.25647256E-05-1.70439050E-05-0.00000000E+00-0.00000000E+00
 6 32 4.44504736E-06-4.06184284E-06-0.00000000E+00-9.82714613E-07-0.00000000E+00
 6 33-9.38121726E-06-0.00000000E+00 3.41756043E-06 6.43224863E-06-0.00000000E+00
 6 34 8.10505812E-01 6.64320555E-03 9.09365999E-04-2.30217512E-04-5.22910977E-04
 6 35 5.20404757E-07-0.00000000E+00 1.99127848E-04-4.51369529E-07-0.00000000E+00
 6 36-1.36428608E-04 1.92368932E-06-0.00000000E+00-2.11003179E-05 9.53795277E-06
 6 37 1.15623652E-05-2.05139272E-08-0.00000000E+00-0.00000000E+00 3.91160396E-05
 6 38-1.78588242E-05-2.12572154E-05 5.58970618E-08-0.00000000E+00-0.00000000E+00
 6 39-1.76384619E-05-4.21500815E-08-0.00000000E+00 9.00442412E-08-0.00000000E+00
 6 40 1.13498531E-05-0.00000000E+00 1.23146268E-05-3.34939727E-08-0.00000000E+00
 7  1-6.92973501E-10-9.37967343E-10-1.53473564E-08-1.10651048E-08 2.45718757E-08
 7  2-1.73885039E-08 2.95196509E-08 3.26352110E-08-3.36768792E-08 2.75399668E-07
 7  3-2.59378595E-06 0.00000000E+00-7.34452708E-07 6.91723392E-06 0.00000000E+00
 7  4-1.99023174E-06 1.87448202E-05 0.00000000E+00 7.31043014E-06-6.88521637E-05
 7  5 0.00000000E+00-1.33094492E-05 1.25352904E-04 0.00000000E+00 2.11236934E-05
 7  6-1.98949785E-04 0.00000000E+00-1.17558531E-05 1.10720355E-04 0.00000000E+00
 7  7 2.16555873E-06-2.16142780E-06-4.13103517E-09 2.35287574E-05 0.00000000E+00
 7  8 0.00000000E+00-4.47657230E-06 4.46836386E-06 8.20849476E-09-4.86395923E-05
 7  9 0.00000000E+00 0.00000000E+00 1.19999056E-06-1.20063623E-06 6.45756194E-10
 7 10 1.30537672E-05 0.00000000E+00 0.00000000E+00 2.52305664E-06-2.50544993E-06
 7 11-1.76062934E-08 2.73433951E-05 0.00000000E+00 0.00000000E+00-5.99337488E-06
 7 12 5.98203968E-06 1.13358018E-08-6.51183300E-05 0.00000000E+00 0.00000000E+00
 7 13-1.23600952E-07 1.14520876E-06 0.00000000E+00 5.12155325E-07 0.00000000E+00
 7 14-5.16853025E-08 0.00000000E+00 2.17513378E-07-2.04861411E-06 0.00000000E+00
 7 15 1.19289606E-06-1.11194946E-05 0.00000000E+00-4.97273761E-06 0.00000000E+00
 7 16 5.11519600E-07 0.00000000E+00-2.11195761E-06 1.98911051E-05 0.00000000E+00
 7 17 1.13057940E-06 3.94108271E-07 2.27565397E-09-8.22130371E-06 0.00000000E+00
 7 18 1.34646730E-05 0.00000000E+00 0.00000000E+00 0.00000000E+00-1.33714948E-06
 7 19-6.48849064E-07 6.44850953E-07 0.00000000E+00 0.00000000E+00-7.03471811E-06
 7 20 7.44357693E-01 6.10103975E-03 8.35131096E-04-2.11461529E-04 2.41848309E-04
 7 21-4.14893546E-04 0.00000000E+00-9.29400313E-05 1.57507501E-04 0.00000000E+00
 7 22 6.90316103E-05-1.04780352E-04 0.00000000E+00 1.78316485E-06-1.24028074E-05
 7 23 1.06196426E-05 1.40282764E-05 0.00000000E+00 0.00000000E+00-3.47818844E-06
 7 24 2.30018600E-05-1.95236716E-05-2.60503984E-05 0.00000000E+00 0.00000000E+00
 7 25-6.65271883E-06-5.20579249E-06 0.00000000E+00-2.74661679E-06 0.00000000E+00
 7 26 1.46923339E-05 0.00000000E+00-5.76677495E-06 9.73092032E-06 0.00000000E+00
 7 27-6.58640155E-01-5.39846212E-03-7.38968913E-04 1.87095281E-04-2.14978459E-04
 7 28-3.66550850E-04 0.00000000E+00 8.30876313E-05 1.38879062E-04 0.00000000E+00
 7 29-6.47132735E-05-9.06369244E-05 0.00000000E+00-1.61176702E-06 1.10080633E-05
 7 30-9.39629629E-06 1.23910663E-05 0.00000000E+00 0.00000000E+00 3.17019655E-06
 7 31-2.04449816E-05 1.72747851E-05-2.29918957E-05 0.00000000E+00 0.00000000E+00
 7 32 5.85159406E-06-4.45334237E-06 0.00000000E+00-2.59873391E-06 0.00000000E+00
 7 33-1.30162692E-05 0.00000000E+00 5.16553192E-06 8.57351968E-06 0.00000000E+00
 7 34-8.61485386E-02-7.06103958E-04-9.66592571E-05 2.44646505E-05 5.55804402E-05
 7 35 4.90135399E-06 0.00000000E+00-2.11654054E-05-4.25114636E-06 0.00000000E+00
 7 36 1.45066039E-05 1.81178879E-05 0.00000000E+00 2.24286011E-06-1.01404433E-06
 7 37-1.22881578E-06-1.93224383E-07 0.00000000E+00 0.00000000E+00-4.15826079E-06
 7 38 1.89904374E-06 2.25921705E-06 5.26457195E-07 0.00000000E+00 0.00000000E+00
 7 39 1.87473590E-06-3.97039025E-07 0.00000000E+00 8.48115767E-07 0.00000000E+00
 7 40-1.20646285E-06 0.00000000E+00-1.30875930E-06-3.15432016E-07 0.00000000E+00
 8  1 2.78895833E-06 3.71350217E-06 6.15745324E-05 4.42693810E-05-9.84745363E-05
 8  2 6.98157142E-05-1.18421891E-04-1.30742504E-04 1.35020293E-04 2.19165632E-09
 8  3-4.11120190E-10 0.00000000E+00-5.87014828E-09 1.08958821E-09 0.00000000E+00
 8  4-1.64359550E-08 3.04238643E-09 0.00000000E+00 6.00467895E-08-1.10643303E-08
 8  5 0.00000000E+00-1.09047435E-07 2.00921350E-08 0.00000000E+00 1.73003336E-07
 8  6-3.18629974E-08 0.00000000E+00-9.59204655E-08 1.77308849E-08 0.00000000E+00
 8  7-8.26044841E-06-8.29581537E-06 1.65562638E-05 3.76424114E-09 0.00000000E+00
 8  8 0.00000000E+00 1.63979451E-05 1.64710383E-05-3.28689834E-05-7.78219996E-09
 8  9 0.00000000E+00 0.00000000E+00 1.29161397E-06 1.27222915E-06-2.56384311E-06
 8 10 2.09195329E-09 0.00000000E+00 0.00000000E+00-3.52850984E-05-3.53267071E-05
 8 11 7.06118055E-05 4.36845062E-09 0.00000000E+00 0.00000000E+00 2.26746808E-05
 8 12 2.27725926E-05-4.54472733E-05-1.04234968E-08 0.00000000E+00 0.00000000E+00
 8 13 8.04710178E-06 1.79244308E-10 0.00000000E+00 8.63537607E-11 0.00000000E+00
 8 14-1.07981760E-05 0.00000000E+00 1.86998882E-09-3.26835235E-10 0.00000000E+00
 8 15-4.92135735E-05-1.79044642E-09 0.00000000E+00-7.82893698E-10 0.00000000E+00
 8 16 6.60442615E-05 0.00000000E+00-1.73232102E-08 3.18502964E-09 0.00000000E+00
 8 17-3.41516469E-06-3.42119550E-06-9.13170082E-06-1.31189247E-09 0.00000000E+00
 8 18 2.15309105E-09 0.00000000E+00 0.00000000E+00 0.00000000E+00-2.01602077E-06
 8 19 8.01516782E-06 8.02576167E-06 0.00000000E+00 0.00000000E+00-1.12858633E-09
 8 20 5.76453864E-01 4.71636180E-03 6.64875828E-04-1.31677171E-04 1.86896045E-04
 8 21-3.23720008E-04 0.00000000E+00-7.12061304E-05 1.23338371E-04 0.00000000E+00
 8 22 6.60841167E-05-1.14485295E-04 0.00000000E+00 2.37067918E-06-9.69021044E-06
 8 23 7.31953126E-06 1.20611535E-05 0.00000000E+00 0.00000000E+00-5.49804087E-06
 8 24 1.93165162E-05-1.38184754E-05-2.48153091E-05 0.00000000E+00 0.00000000E+00
 8 25-5.70660381E-06-3.75580729E-06 0.00000000E+00-1.67897331E-06 0.00000000E+00
 8 26 1.15345617E-05 0.00000000E+00-3.87834930E-06 6.71791756E-06 0.00000000E+00
 8 27 5.76229329E-01 4.71452146E-03 6.64623868E-04-1.31613365E-04 1.86822939E-04
 8 28 3.23594943E-04 0.00000000E+00-7.11779473E-05-1.23290943E-04 0.00000000E+00
 8 29 6.60626861E-05 1.14454036E-04 0.00000000E+00 2.37013100E-06-9.68645837E-06
 8 30 7.31632736E-06-1.20569248E-05 0.00000000E+00 0.00000000E+00-5.49698041E-06
 8 31 1.93095576E-05-1.38125772E-05 2.48074595E-05 0.00000000E+00 0.00000000E+00
 8 32-5.70460411E-06 3.75426605E-06 0.00000000E+00 1.67811351E-06 0.00000000E+00
 8 33 1.15301274E-05 0.00000000E+00-3.87659785E-06-6.71498997E-06 0.00000000E+00
 8 34 5.75286524E-01 4.70679383E-03 6.63566258E-04-1.31346095E-04-3.73044604E-04
 8 35 7.81655520E-10 0.00000000E+00 1.42130470E-04-6.71742672E-10 0.00000000E+00
 8 36-1.31992433E-04 2.88906964E-09 0.00000000E+00-1.56904482E-05 8.38757889E-06
 8 37 7.30286930E-06-3.64284194E-11 0.00000000E+00 0.00000000E+00 3.16679346E-05
 8 38-1.78801231E-05-1.37878115E-05 7.35549487E-11 0.00000000E+00 0.00000000E+00
 8 39-1.21855857E-05-6.18689804E-11 0.00000000E+00 1.31348504E-10 0.00000000E+00
 8 40 8.60936128E-06 0.00000000E+00 7.73931748E-06-4.83425563E-11 0.00000000E+00
 9  1 1.50966375E-01-5.43098486E-01 1.11277253E+00 4.58324673E-03-1.30752399E-04
 9  2 3.48268600E-03-1.60827721E-03 4.84442747E-04-9.54417528E-05-1.09607742E-10
 9  3-0.00000000E+00-0.00000000E+00 2.21111634E-10 1.50925920E-11-0.00000000E+00
 9  4-1.11616828E-10-0.00000000E+00-0.00000000E+00 3.26270223E-10-2.27468945E-11
 9  5-0.00000000E+00-4.45101546E-10 3.39282566E-11-0.00000000E+00 4.35201276E-10
 9  6-3.43141172E-11-0.00000000E+00 1.58475641E-10-4.82362665E-11-0.00000000E+00
 9  7 7.95225636E-05 7.95227260E-05-1.59045290E-04-0.00000000E+00-0.00000000E+00
 9  8-0.00000000E+00-1.28612587E-05-1.28613815E-05 2.57226402E-05-0.00000000E+00
 9  9-0.00000000E+00-0.00000000E+00 5.94630620E-06 5.94646671E-06-1.18927729E-05
 9 10-0.00000000E+00-0.00000000E+00-0.00000000E+00-2.39466854E-05-2.39470135E-05
 9 11 4.78936989E-05 2.68365132E-11-0.00000000E+00-0.00000000E+00 1.12972476E-05
 9 12 1.12972732E-05-2.25945208E-05 1.34569443E-11-0.00000000E+00-0.00000000E+00
 9 13 6.00943162E-06-0.00000000E+00-0.00000000E+00-0.00000000E+00-0.00000000E+00
 9 14-8.06247858E-06-0.00000000E+00-2.10639093E-11-0.00000000E+00-0.00000000E+00
 9 15-2.38641840E-05-0.00000000E+00-0.00000000E+00-0.00000000E+00-0.00000000E+00
 9 16 3.20172259E-05-0.00000000E+00-5.88246975E-11-0.00000000E+00-0.00000000E+00
 9 17-3.82033965E-06-3.82035715E-06-1.01876298E-05-0.00000000E+00-0.00000000E+00
 9 18-0.00000000E+00-0.00000000E+00-0.00000000E+00-0.00000000E+00-2.23699690E-06
 9 19 8.94788243E-06 8.94791317E-06-0.00000000E+00-0.00000000E+00-0.00000000E+00
 9 20 2.11227154E-06-1.71943633E-05 4.40842599E-05-4.12553324E-05-3.50732646E-06
 9 21 6.07481709E-06-0.00000000E+00 7.92887329E-06-1.37333787E-05-0.00000000E+00
 9 22-2.26015284E-06 3.91462526E-06-0.00000000E+00-6.17673676E-07 4.12533616E-06
 9 23-3.50766249E-06-4.74308543E-06-0.00000000E+00-0.00000000E+00 4.32774540E-07
 9 24-4.08349395E-06 3.65071941E-06 4.51646072E-06-0.00000000E+00-0.00000000E+00
 9 25 5.41956184E-06 4.07229056E-06-0.00000000E+00 1.82120296E-06-0.00000000E+00
 9 26-1.14769733E-05-0.00000000E+00 4.20586806E-06-7.28475407E-06-0.00000000E+00
 9 27 2.11226863E-06-1.71943713E-05 4.40843320E-05-4.12554825E-05-3.50732543E-06
 9 28-6.07481428E-06-0.00000000E+00 7.92887981E-06 1.37333884E-05-0.00000000E+00
 9 29-2.26018449E-06-3.91468553E-06-0.00000000E+00-6.17677229E-07 4.12534110E-06
 9 30-3.50766387E-06 4.74308909E-06-0.00000000E+00-0.00000000E+00 4.32782943E-07
 9 31-4.08350974E-06 3.65072680E-06-4.51648001E-06-0.00000000E+00-0.00000000E+00
 9 32 5.41956354E-06-4.07229132E-06-0.00000000E+00-1.82120289E-06-0.00000000E+00
 9 33-1.14769748E-05-0.00000000E+00 4.20586735E-06 7.28475502E-06-0.00000000E+00
 9 34 2.11243717E-06-1.71944002E-05 4.40844949E-05-4.12559191E-05 7.01456479E-06