!   File created by MacMolPlt 7.7.2
 $CONTRL SCFTYP=RHF RUNTYP=ENERGY MAXIT=30 MULT=1 COORD=CART $END
 $SYSTEM TIMLIM=525600 MEMORY=1000000 $END
 $BASIS GBASIS=MINI $END
 $SCF DIRSCF=.TRUE. $END
 $DATA 
Title
DNH 3

Rh    45.0    -0.00000     0.00000     0.00000
F     9.0     2.07000     0.00000     0.00000
F     9.0    -1.03500     1.79267     0.00000
F     9.0    -1.03500    -1.79267     0.00000
 $END
