 !Step 1: Energy convergence on D3h RhF3, 14 SOMO, cation 10.
 $system kdiag=3 mwords=200 memddi=3000 parall=.t. $end
 $contrl runtyp=energy ispher=1 relwfn=LUT-IOTC $end
 $contrl icut=9 itol=20 inttyp=rysquad qmttol=1.0d-05 nosym=0 $end
 $scf    npunch=2 conv=1.0d-06 dirscf=.t. diis=.t. soscf=.f. ethrsh=10.0 $end
 $contrl scftyp=rohf  mult=15 maxit=200 icharg=10 $end
 $guess  guess=moread norb=168 purify=.t. norder=1
         iorder(25)=30,31,32,33,34,35,36,37,38,25,26,27,28,29 $end
 $basis  gbasis=SPKrTZP $end
 -mcscf  cistep=gmcci fullnr=.t. finci=mos
         acurcy=1.d-6 maxit=100 $end
 $trans  dirtrf=.t. $end
 -mrmp   mrpt=gmcpt rdvecs=.f. $end
 -gmcpt  nmofzc=27 nmodoc=0 nmoact=5 nelact=5 stsym(1)=A nsolut=100
         reftyp=ormas nspace=1 mstart(1)=28 mine(1)=5 maxe(1)=5
         kstate(1)=1
         wstate(1)=1
         iwgt=0 thrwgt=-1.0 krot=.f. kszdoe=.f. knospn=.f.
         thrde=-1.0 edshft=0.02 $end
 $statpt hssend=.t. $end
 $data
 RhF3 filled 2s of F calculation
 DNH 3

 Rh    45.0    0.0  0.0  0.0
 F      9.0    2.07 0.0  0.0
 $end
--- CLOSED SHELL ORBITALS --- GENERATED AT Sat Dec 16 17:46:06 2023
 RhF3 filled 2s of F calculation                                                
E(RHF)=    -4978.7927129360, E(NUC)=  346.4695025410,    9 ITERS
 $VEC   
 1  1 9.95680810E-01 1.09965020E-02-1.14551072E-02-1.17736490E-02 1.44256132E-02
 1  2 8.53798353E-03-4.91524752E-03 1.28419469E-03-3.03345973E-04 0.00000000E+00
 1  3 0.00000000E+00 0.00000000E+00 0.00000000E+00 0.00000000E+00 0.00000000E+00
 1  4 0.00000000E+00 0.00000000E+00 0.00000000E+00 0.00000000E+00 0.00000000E+00
 1  5 0.00000000E+00 0.00000000E+00 0.00000000E+00 0.00000000E+00 0.00000000E+00
 1  6 0.00000000E+00 0.00000000E+00 0.00000000E+00 0.00000000E+00 0.00000000E+00
 1  7 2.18060951E-06 2.18060951E-06-4.36121903E-06 0.00000000E+00 0.00000000E+00
 1  8 0.00000000E+00-9.29010621E-06-9.29010621E-06 1.85802124E-05 0.00000000E+00
 1  9 0.00000000E+00 0.00000000E+00 3.56279814E-05 3.56279814E-05-7.12559628E-05
 1 10 0.00000000E+00 0.00000000E+00 0.00000000E+00-9.50973923E-05-9.50973923E-05
 1 11 1.90194785E-04 0.00000000E+00 0.00000000E+00 0.00000000E+00 2.20139369E-05
 1 12 2.20139369E-05-4.40278738E-05 0.00000000E+00 0.00000000E+00 0.00000000E+00
 1 13 3.41450020E-05 0.00000000E+00 0.00000000E+00 0.00000000E+00 0.00000000E+00
 1 14-4.58103274E-05 0.00000000E+00 0.00000000E+00 0.00000000E+00 0.00000000E+00
 1 15-1.11616957E-04 0.00000000E+00 0.00000000E+00 0.00000000E+00 0.00000000E+00
 1 16 1.49749862E-04 0.00000000E+00 0.00000000E+00 0.00000000E+00 0.00000000E+00
 1 17-8.62252172E-06-8.62252172E-06-2.29933913E-05 0.00000000E+00 0.00000000E+00
 1 18 0.00000000E+00 0.00000000E+00 0.00000000E+00 0.00000000E+00-5.04883175E-06
 1 19 2.01953270E-05 2.01953270E-05 0.00000000E+00 0.00000000E+00 0.00000000E+00
 1 20-3.31059948E-06-3.56737527E-05 1.88438476E-05 8.01031166E-05-8.06525603E-06
 1 21 1.39694332E-05 0.00000000E+00 1.71791561E-05-2.97551712E-05 0.00000000E+00
 1 22 5.53600362E-05-9.58863954E-05 0.00000000E+00 3.41010548E-06-1.56023119E-05
 1 23 1.21922064E-05 1.90124173E-05 0.00000000E+00 0.00000000E+00-1.22296391E-05
 1 24 5.83466463E-05-4.61170072E-05-7.05762855E-05 0.00000000E+00 0.00000000E+00
 1 25-4.20958316E-06-2.88631019E-06 0.00000000E+00-1.29079716E-06 0.00000000E+00
 1 26 8.62871680E-06 0.00000000E+00-2.98096834E-06 5.16318862E-06 0.00000000E+00
 1 27-3.31059948E-06-3.56737527E-05 1.88438476E-05 8.01031166E-05-8.06525603E-06
 1 28-1.39694332E-05 0.00000000E+00 1.71791561E-05 2.97551712E-05 0.00000000E+00
 1 29 5.53600362E-05 9.58863954E-05 0.00000000E+00 3.41010548E-06-1.56023119E-05
 1 30 1.21922064E-05-1.90124173E-05 0.00000000E+00 0.00000000E+00-1.22296391E-05
 1 31 5.83466463E-05-4.61170072E-05 7.05762855E-05 0.00000000E+00 0.00000000E+00
 1 32-4.20958316E-06 2.88631019E-06 0.00000000E+00 1.29079716E-06 0.00000000E+00
 1 33 8.62871680E-06 0.00000000E+00-2.98096834E-06-5.16318862E-06 0.00000000E+00
 1 34-3.31059948E-06-3.56737527E-05 1.88438476E-05 8.01031166E-05 1.61305121E-05
 1 35 0.00000000E+00 0.00000000E+00-3.43583122E-05 0.00000000E+00 0.00000000E+00
 1 36-1.10720072E-04 0.00000000E+00 0.00000000E+00-2.51085205E-05 1.29163141E-05
 1 37 1.21922064E-05 0.00000000E+00 0.00000000E+00 0.00000000E+00 9.36347891E-05
 1 38-4.75177819E-05-4.61170072E-05 0.00000000E+00 0.00000000E+00 0.00000000E+00
 1 39-9.20881904E-06 0.00000000E+00 0.00000000E+00 0.00000000E+00 0.00000000E+00
 1 40 6.39299054E-06 0.00000000E+00 5.96193668E-06 0.00000000E+00 0.00000000E+00
 2  1-3.51774724E-01 1.04702311E+00 2.73442301E-02-5.21871388E-04-8.36829555E-03
 2  2 4.19249037E-03-3.10130953E-03 8.49035243E-04-2.16403557E-04 0.00000000E+00
 2  3 0.00000000E+00 0.00000000E+00 0.00000000E+00 0.00000000E+00 0.00000000E+00
 2  4 0.00000000E+00 0.00000000E+00 0.00000000E+00 0.00000000E+00 0.00000000E+00
 2  5 0.00000000E+00 0.00000000E+00 0.00000000E+00 0.00000000E+00 0.00000000E+00
 2  6 0.00000000E+00 0.00000000E+00 0.00000000E+00 0.00000000E+00 0.00000000E+00
 2  7 4.53449504E-06 4.53449504E-06-9.06899008E-06 0.00000000E+00 0.00000000E+00
 2  8 0.00000000E+00-8.40408601E-06-8.40408601E-06 1.68081720E-05 0.00000000E+00
 2  9 0.00000000E+00 0.00000000E+00 2.94093578E-05 2.94093578E-05-5.88187156E-05
 2 10 0.00000000E+00 0.00000000E+00 0.00000000E+00-8.32872353E-05-8.32872353E-05
 2 11 1.66574471E-04 0.00000000E+00 0.00000000E+00 0.00000000E+00 1.67128841E-05
 2 12 1.67128841E-05-3.34257681E-05 0.00000000E+00 0.00000000E+00 0.00000000E+00
 2 13 2.88153446E-05 0.00000000E+00 0.00000000E+00 0.00000000E+00 0.00000000E+00
 2 14-3.86598416E-05 0.00000000E+00 0.00000000E+00 0.00000000E+00 0.00000000E+00
 2 15-9.94041562E-05 0.00000000E+00 0.00000000E+00 0.00000000E+00 0.00000000E+00
 2 16 1.33364670E-04 0.00000000E+00 0.00000000E+00 0.00000000E+00 0.00000000E+00
 2 17-7.59201214E-06-7.59201214E-06-2.02453657E-05 0.00000000E+00 0.00000000E+00
 2 18 0.00000000E+00 0.00000000E+00 0.00000000E+00 0.00000000E+00-4.44542712E-06
 2 19 1.77817085E-05 1.77817085E-05 0.00000000E+00 0.00000000E+00 0.00000000E+00
 2 20-2.04537085E-06-2.84196976E-05 2.33330014E-06 8.82000760E-05-6.13509881E-06
 2 21 1.06263028E-05 0.00000000E+00 9.91505618E-06-1.71733811E-05 0.00000000E+00
 2 22 5.22579244E-05-9.05133801E-05 0.00000000E+00 3.46879716E-06-1.64596970E-05
 2 23 1.29908998E-05 1.99284942E-05 0.00000000E+00 0.00000000E+00-1.11425716E-05
 2 24 5.40902539E-05-4.29476823E-05-6.52328255E-05 0.00000000E+00 0.00000000E+00
 2 25-6.68635482E-06-4.77894284E-06 0.00000000E+00-2.13720821E-06 0.00000000E+00
 2 26 1.39063573E-05 0.00000000E+00-4.93567094E-06 8.54883285E-06 0.00000000E+00
 2 27-2.04537085E-06-2.84196976E-05 2.33330014E-06 8.82000760E-05-6.13509881E-06
 2 28-1.06263028E-05 0.00000000E+00 9.91505618E-06 1.71733811E-05 0.00000000E+00
 2 29 5.22579244E-05 9.05133801E-05 0.00000000E+00 3.46879716E-06-1.64596970E-05
 2 30 1.29908998E-05-1.99284942E-05 0.00000000E+00 0.00000000E+00-1.11425716E-05
 2 31 5.40902539E-05-4.29476823E-05 6.52328255E-05 0.00000000E+00 0.00000000E+00
 2 32-6.68635482E-06 4.77894284E-06 0.00000000E+00 2.13720821E-06 0.00000000E+00
 2 33 1.39063573E-05 0.00000000E+00-4.93567094E-06-8.54883285E-06 0.00000000E+00
 2 34-2.04537085E-06-2.84196976E-05 2.33330014E-06 8.82000760E-05 1.22701976E-05
 2 35 0.00000000E+00 0.00000000E+00-1.98301124E-05 0.00000000E+00 0.00000000E+00
 2 36-1.04515849E-04 0.00000000E+00 0.00000000E+00-2.64239441E-05 1.34330442E-05
 2 37 1.29908998E-05 0.00000000E+00 0.00000000E+00 0.00000000E+00 8.67066666E-05
 2 38-4.37589843E-05-4.29476823E-05 0.00000000E+00 0.00000000E+00 0.00000000E+00
 2 39-1.49637266E-05 0.00000000E+00 0.00000000E+00 0.00000000E+00 0.00000000E+00
 2 40 1.02046041E-05 0.00000000E+00 9.87134189E-06 0.00000000E+00 0.00000000E+00
 3  1 0.00000000E+00 0.00000000E+00 0.00000000E+00 0.00000000E+00 0.00000000E+00
 3  2 0.00000000E+00 0.00000000E+00 0.00000000E+00 0.00000000E+00 9.93653235E-01
 3  3 0.00000000E+00 0.00000000E+00 1.25925163E-02 0.00000000E+00 0.00000000E+00
 3  4 4.95250984E-03 0.00000000E+00 0.00000000E+00-4.88901540E-03 0.00000000E+00
 3  5 0.00000000E+00 2.72827783E-03 0.00000000E+00 0.00000000E+00-1.44207243E-03
 3  6 0.00000000E+00 0.00000000E+00 2.97338192E-04 0.00000000E+00 0.00000000E+00
 3  7 2.97774324E-06-2.97774324E-06 0.00000000E+00 0.00000000E+00 0.00000000E+00
 3  8 0.00000000E+00-1.54248017E-05 1.54248017E-05 0.00000000E+00 0.00000000E+00
 3  9 0.00000000E+00 0.00000000E+00 6.10868175E-05-6.10868175E-05 0.00000000E+00
 3 10 0.00000000E+00 0.00000000E+00 0.00000000E+00-1.73386905E-04 1.73386905E-04
 3 11 0.00000000E+00 0.00000000E+00 0.00000000E+00 0.00000000E+00 6.47981142E-05
 3 12-6.47981142E-05 0.00000000E+00 0.00000000E+00 0.00000000E+00 0.00000000E+00
 3 13 1.13810769E-05 0.00000000E+00 0.00000000E+00 0.00000000E+00 0.00000000E+00
 3 14 5.08977234E-06 0.00000000E+00-2.03590893E-05 0.00000000E+00 0.00000000E+00
 3 15-3.83935383E-05 0.00000000E+00 0.00000000E+00 0.00000000E+00 0.00000000E+00
 3 16-1.71701123E-05 0.00000000E+00 6.86804492E-05 0.00000000E+00 0.00000000E+00
 3 17-3.24039054E-05-9.79874050E-06 0.00000000E+00 0.00000000E+00 0.00000000E+00
 3 18 0.00000000E+00 0.00000000E+00 0.00000000E+00 0.00000000E+00 3.70670087E-05
 3 19 1.98543439E-05-1.98543439E-05 0.00000000E+00 0.00000000E+00 0.00000000E+00
 3 20 2.52554507E-06 3.21987324E-05-3.69850740E-05-1.25169024E-05 3.83052574E-06
 3 21-6.78110706E-06 0.00000000E+00-6.32439165E-06 8.05002129E-06 0.00000000E+00
 3 22-3.92224820E-05 6.35602140E-05 0.00000000E+00-3.84661305E-06 1.29984090E-05
 3 23-9.15179592E-06-1.20473468E-05 0.00000000E+00 0.00000000E+00 1.02067908E-05
 3 24-4.03614265E-05 3.01546357E-05 4.20578047E-05 0.00000000E+00 0.00000000E+00
 3 25 5.72481531E-06 9.54772990E-06 0.00000000E+00-5.34311499E-06 0.00000000E+00
 3 26-9.60526070E-06 0.00000000E+00 1.92461498E-06-7.46650885E-06 0.00000000E+00
 3 27 2.52554507E-06 3.21987324E-05-3.69850740E-05-1.25169024E-05 3.83052574E-06
 3 28 6.78110706E-06 0.00000000E+00-6.32439165E-06-8.05002129E-06 0.00000000E+00
 3 29-3.92224820E-05-6.35602140E-05 0.00000000E+00-3.84661305E-06 1.29984090E-05
 3 30-9.15179592E-06 1.20473468E-05 0.00000000E+00 0.00000000E+00 1.02067908E-05
 3 31-4.03614265E-05 3.01546357E-05-4.20578047E-05 0.00000000E+00 0.00000000E+00
 3 32 5.72481531E-06-9.54772990E-06 0.00000000E+00 5.34311499E-06 0.00000000E+00
 3 33-9.60526070E-06 0.00000000E+00 1.92461498E-06 7.46650885E-06 0.00000000E+00
 3 34-5.05109014E-06-6.43974648E-05 7.39701479E-05 2.50338047E-05 1.55757477E-05
 3 35 0.00000000E+00 0.00000000E+00-2.02674375E-05 0.00000000E+00 0.00000000E+00
 3 36-1.49312002E-04 0.00000000E+00 0.00000000E+00-3.56453271E-05 1.73417353E-05
 3 37 1.83035918E-05 0.00000000E+00 0.00000000E+00 0.00000000E+00 1.18525451E-04
 3 38-5.82161800E-05-6.03092714E-05 0.00000000E+00 0.00000000E+00 0.00000000E+00
 3 39-2.19067242E-05 0.00000000E+00 0.00000000E+00 0.00000000E+00 0.00000000E+00
 3 40 1.45339670E-05 0.00000000E+00 1.48569877E-05 0.00000000E+00 0.00000000E+00
 4  1 0.00000000E+00 0.00000000E+00 0.00000000E+00 0.00000000E+00 0.00000000E+00
 4  2 0.00000000E+00 0.00000000E+00 0.00000000E+00 0.00000000E+00 0.00000000E+00
 4  3 9.93653235E-01 0.00000000E+00 0.00000000E+00 1.25925163E-02 0.00000000E+00
 4  4 0.00000000E+00 4.95250984E-03 0.00000000E+00 0.00000000E+00-4.88901540E-03
 4  5 0.00000000E+00 0.00000000E+00 2.72827783E-03 0.00000000E+00 0.00000000E+00
 4  6-1.44207243E-03 0.00000000E+00 0.00000000E+00 2.97338192E-04 0.00000000E+00
 4  7 0.00000000E+00 0.00000000E+00 0.00000000E+00-3.43840172E-06 0.00000000E+00
 4  8 0.00000000E+00 0.00000000E+00 0.00000000E+00 0.00000000E+00 1.78110268E-05
 4  9 0.00000000E+00 0.00000000E+00 0.00000000E+00 0.00000000E+00 0.00000000E+00
 4 10-7.05369811E-05 0.00000000E+00 0.00000000E+00 0.00000000E+00 0.00000000E+00
 4 11 0.00000000E+00 2.00209953E-04 0.00000000E+00 0.00000000E+00 0.00000000E+00
 4 12 0.00000000E+00 0.00000000E+00-7.48224173E-05 0.00000000E+00 0.00000000E+00
 4 13 0.00000000E+00 1.13810769E-05 0.00000000E+00 5.08977234E-06 0.00000000E+00
 4 14 0.00000000E+00 0.00000000E+00 0.00000000E+00-2.03590893E-05 0.00000000E+00
 4 15 0.00000000E+00-3.83935383E-05 0.00000000E+00-1.71701123E-05 0.00000000E+00
 4 16 0.00000000E+00 0.00000000E+00 0.00000000E+00 6.86804492E-05 0.00000000E+00
 4 17 0.00000000E+00 0.00000000E+00 0.00000000E+00-2.33582524E-05 0.00000000E+00
 4 18 4.04461509E-05 0.00000000E+00 0.00000000E+00 0.00000000E+00 0.00000000E+00
 4 19 0.00000000E+00 0.00000000E+00 0.00000000E+00 0.00000000E+00-2.29258216E-05
 4 20-4.37437238E-06-5.57698405E-05 6.40600272E-05 2.16799109E-05-6.78110706E-06
 4 21 1.16606737E-05 0.00000000E+00 8.05002129E-06-1.56197556E-05 0.00000000E+00
 4 22 6.35602140E-05-1.12615495E-04 0.00000000E+00 2.50762061E-06-1.83589961E-05
 4 23 1.58513755E-05 2.36365558E-05 0.00000000E+00 0.00000000E+00-1.03084468E-05
 4 24 6.25378079E-05-5.22293611E-05-7.77597436E-05 0.00000000E+00 0.00000000E+00
 4 25-7.60526609E-06-2.79292417E-06 0.00000000E+00-6.79909580E-06 0.00000000E+00
 4 26 1.76700440E-05 0.00000000E+00-7.46650885E-06 1.05461968E-05 0.00000000E+00
 4 27 4.37437238E-06 5.57698405E-05-6.40600272E-05-2.16799109E-05 6.78110706E-06
 4 28 1.16606737E-05 0.00000000E+00-8.05002129E-06-1.56197556E-05 0.00000000E+00
 4 29-6.35602140E-05-1.12615495E-04 0.00000000E+00-2.50762061E-06 1.83589961E-05
 4 30-1.58513755E-05 2.36365558E-05 0.00000000E+00 0.00000000E+00 1.03084468E-05
 4 31-6.25378079E-05 5.22293611E-05-7.77597436E-05 0.00000000E+00 0.00000000E+00
 4 32 7.60526609E-06-2.79292417E-06 0.00000000E+00-6.79909580E-06 0.00000000E+00
 4 33-1.76700440E-05 0.00000000E+00 7.46650885E-06 1.05461968E-05 0.00000000E+00
 4 34 0.00000000E+00 0.00000000E+00 0.00000000E+00 0.00000000E+00 0.00000000E+00
 4 35-8.45482459E-08 0.00000000E+00 0.00000000E+00-1.67670969E-06 0.00000000E+00
 4 36 0.00000000E+00-2.52597533E-06 0.00000000E+00 0.00000000E+00 0.00000000E+00
 4 37 0.00000000E+00 2.76993908E-06 0.00000000E+00 0.00000000E+00 0.00000000E+00
 4 38 0.00000000E+00 0.00000000E+00-4.91348895E-06 0.00000000E+00 0.00000000E+00
 4 39 0.00000000E+00-4.87124522E-06 0.00000000E+00 8.92163719E-06 0.00000000E+00
 4 40 0.00000000E+00 0.00000000E+00 0.00000000E+00-2.38617592E-06 0.00000000E+00
 5  1 0.00000000E+00 0.00000000E+00 0.00000000E+00 0.00000000E+00 0.00000000E+00
 5  2 0.00000000E+00 0.00000000E+00 0.00000000E+00 0.00000000E+00 0.00000000E+00
 5  3 0.00000000E+00 9.93657906E-01 0.00000000E+00 0.00000000E+00 1.25937179E-02
 5  4 0.00000000E+00 0.00000000E+00 4.85279794E-03 0.00000000E+00 0.00000000E+00
 5  5-4.67652640E-03 0.00000000E+00 0.00000000E+00 2.41710449E-03 0.00000000E+00
 5  6 0.00000000E+00-1.14216397E-03 0.00000000E+00 0.00000000E+00 3.11892066E-04
 5  7 0.00000000E+00 0.00000000E+00 0.00000000E+00 0.00000000E+00 0.00000000E+00
 5  8 0.00000000E+00 0.00000000E+00 0.00000000E+00 0.00000000E+00 0.00000000E+00
 5  9 0.00000000E+00 0.00000000E+00 0.00000000E+00 0.00000000E+00 0.00000000E+00
 5 10 0.00000000E+00 0.00000000E+00 0.00000000E+00 0.00000000E+00 0.00000000E+00
 5 11 0.00000000E+00 0.00000000E+00 0.00000000E+00 0.00000000E+00 0.00000000E+00
 5 12 0.00000000E+00 0.00000000E+00 0.00000000E+00 0.00000000E+00 0.00000000E+00
 5 13 0.00000000E+00 0.00000000E+00-1.40200142E-06 0.00000000E+00 9.40491147E-07
 5 14 0.00000000E+00 9.40491147E-07 0.00000000E+00 0.00000000E+00 0.00000000E+00
 5 15 0.00000000E+00 0.00000000E+00 2.34231086E-06 0.00000000E+00-1.57126989E-06
 5 16 0.00000000E+00-1.57126989E-06 0.00000000E+00 0.00000000E+00 0.00000000E+00
 5 17 0.00000000E+00 0.00000000E+00 0.00000000E+00 0.00000000E+00-2.10173314E-06
 5 18 0.00000000E+00 0.00000000E+00 0.00000000E+00 0.00000000E+00 0.00000000E+00
 5 19 0.00000000E+00 0.00000000E+00 0.00000000E+00 2.81977090E-06 0.00000000E+00
 5 20 0.00000000E+00 0.00000000E+00 0.00000000E+00 0.00000000E+00 0.00000000E+00
 5 21 0.00000000E+00-3.12664026E-06 0.00000000E+00 0.00000000E+00 7.80090838E-06
 5 22 0.00000000E+00 0.00000000E+00-1.55536069E-05 0.00000000E+00 0.00000000E+00
 5 23 0.00000000E+00 0.00000000E+00-2.84800128E-06 4.93288292E-06 0.00000000E+00
 5 24 0.00000000E+00 0.00000000E+00 0.00000000E+00 6.78924106E-06-1.17593105E-05
 5 25 0.00000000E+00 0.00000000E+00-6.12515236E-06 0.00000000E+00 6.84857831E-07
 5 26 0.00000000E+00 7.53289640E-06 0.00000000E+00 0.00000000E+00-6.84803857E-06
 5 27 0.00000000E+00 0.00000000E+00 0.00000000E+00 0.00000000E+00 0.00000000E+00
 5 28 0.00000000E+00-3.12664026E-06 0.00000000E+00 0.00000000E+00 7.80090838E-06
 5 29 0.00000000E+00 0.00000000E+00-1.55536069E-05 0.00000000E+00 0.00000000E+00
 5 30 0.00000000E+00 0.00000000E+00-2.84800128E-06-4.93288292E-06 0.00000000E+00
 5 31 0.00000000E+00 0.00000000E+00 0.00000000E+00 6.78924106E-06 1.17593105E-05
 5 32 0.00000000E+00 0.00000000E+00-6.12515236E-06 0.00000000E+00 6.84857831E-07
 5 33 0.00000000E+00 7.53289640E-06 0.00000000E+00 0.00000000E+00 6.84803857E-06
 5 34 0.00000000E+00 0.00000000E+00 0.00000000E+00 0.00000000E+00 0.00000000E+00
 5 35 0.00000000E+00-3.12664026E-06 0.00000000E+00 0.00000000E+00 7.80090838E-06
 5 36 0.00000000E+00 0.00000000E+00-1.55536069E-05 0.00000000E+00 0.00000000E+00
 5 37 0.00000000E+00 0.00000000E+00 5.69600256E-06 0.00000000E+00 0.00000000E+00
 5 38 0.00000000E+00 0.00000000E+00 0.00000000E+00-1.35784821E-05 0.00000000E+00
 5 39 0.00000000E+00 0.00000000E+00-6.12515236E-06 0.00000000E+00 1.09569157E-05
 5 40 0.00000000E+00-2.73916146E-06 0.00000000E+00 0.00000000E+00 0.00000000E+00
 6  1-2.09273470E-05-1.68863794E-04-7.55677523E-04-1.58724647E-03 9.79645940E-04
 6  2 2.57304300E-03-2.24559029E-03 1.74199120E-03 3.79152853E-04 0.00000000E+00
 6  3 0.00000000E+00 0.00000000E+00 0.00000000E+00 0.00000000E+00 0.00000000E+00
 6  4 0.00000000E+00 0.00000000E+00 0.00000000E+00 0.00000000E+00 0.00000000E+00
 6  5 0.00000000E+00 0.00000000E+00 0.00000000E+00 0.00000000E+00 0.00000000E+00
 6  6 0.00000000E+00 0.00000000E+00 0.00000000E+00 0.00000000E+00 0.00000000E+00
 6  7 5.00755416E-06 5.00755416E-06-1.00151083E-05 0.00000000E+00 0.00000000E+00
 6  8 0.00000000E+00-2.80837771E-05-2.80837771E-05 5.61675542E-05 0.00000000E+00
 6  9 0.00000000E+00 0.00000000E+00 1.30231718E-04 1.30231718E-04-2.60463436E-04
 6 10 0.00000000E+00 0.00000000E+00 0.00000000E+00-1.55236343E-04-1.55236343E-04
 6 11 3.10472686E-04 0.00000000E+00 0.00000000E+00 0.00000000E+00 2.49114109E-04
 6 12 2.49114109E-04-4.98228218E-04 0.00000000E+00 0.00000000E+00 0.00000000E+00
 6 13 1.61188671E-04 0.00000000E+00 0.00000000E+00 0.00000000E+00 0.00000000E+00
 6 14-2.16257295E-04 0.00000000E+00 0.00000000E+00 0.00000000E+00 0.00000000E+00
 6 15-3.61731557E-04 0.00000000E+00 0.00000000E+00 0.00000000E+00 0.00000000E+00
 6 16 4.85313810E-04 0.00000000E+00 0.00000000E+00 0.00000000E+00 0.00000000E+00
 6 17-5.58585214E-05-5.58585214E-05-1.48956057E-04 0.00000000E+00 0.00000000E+00
 6 18 0.00000000E+00 0.00000000E+00 0.00000000E+00 0.00000000E+00-3.27074010E-05
 6 19 1.30829604E-04 1.30829604E-04 0.00000000E+00 0.00000000E+00 0.00000000E+00
 6 20 5.77101852E-01-2.58637865E-03 5.17582673E-03-2.67683037E-03-6.74106156E-04
 6 21 1.16758611E-03 0.00000000E+00 5.85991569E-04-1.01496717E-03 0.00000000E+00
 6 22-3.08324132E-04 5.34033062E-04 0.00000000E+00 1.72831999E-06 3.92099886E-05
 6 23-4.09383086E-05-3.74816686E-05 0.00000000E+00 0.00000000E+00-3.08993332E-05
 6 24 5.38171384E-05-2.29178052E-05-8.47164716E-05 0.00000000E+00 0.00000000E+00
 6 25-2.37722690E-05-1.03879091E-05 0.00000000E+00-4.64561418E-06 0.00000000E+00
 6 26 4.26224320E-05 0.00000000E+00-1.07285864E-05 1.85824567E-05 0.00000000E+00
 6 27 5.77101852E-01-2.58637865E-03 5.17582673E-03-2.67683037E-03-6.74106156E-04
 6 28-1.16758611E-03 0.00000000E+00 5.85991569E-04 1.01496717E-03 0.00000000E+00
 6 29-3.08324132E-04-5.34033062E-04 0.00000000E+00 1.72831999E-06 3.92099886E-05
 6 30-4.09383086E-05 3.74816686E-05 0.00000000E+00 0.00000000E+00-3.08993332E-05
 6 31 5.38171384E-05-2.29178052E-05 8.47164716E-05 0.00000000E+00 0.00000000E+00
 6 32-2.37722690E-05 1.03879091E-05 0.00000000E+00 4.64561418E-06 0.00000000E+00
 6 33 4.26224320E-05 0.00000000E+00-1.07285864E-05-1.85824567E-05 0.00000000E+00
 6 34 5.77101852E-01-2.58637865E-03 5.17582673E-03-2.67683037E-03 1.34821231E-03
 6 35 0.00000000E+00 0.00000000E+00-1.17198314E-03 0.00000000E+00 0.00000000E+00
 6 36 6.16648264E-04 0.00000000E+00 0.00000000E+00 5.79508229E-05-1.70125143E-05
 6 37-4.09383086E-05 0.00000000E+00 0.00000000E+00 0.00000000E+00 9.61753742E-05
 6 38-7.32575691E-05-2.29178052E-05 0.00000000E+00 0.00000000E+00 0.00000000E+00
 6 39-4.17646553E-05 0.00000000E+00 0.00000000E+00 0.00000000E+00 0.00000000E+00
 6 40 3.45759923E-05 0.00000000E+00 2.14571728E-05 0.00000000E+00 0.00000000E+00
 7  1-0.00000000E+00-0.00000000E+00-0.00000000E+00-0.00000000E+00-0.00000000E+00
 7  2-0.00000000E+00-0.00000000E+00-0.00000000E+00-0.00000000E+00 1.39562862E-05
 7  3-0.00000000E+00-0.00000000E+00-9.65599145E-05-0.00000000E+00-0.00000000E+00
 7  4 5.03352133E-04-0.00000000E+00-0.00000000E+00-9.80746101E-04-0.00000000E+00
 7  5-0.00000000E+00 1.33005385E-03-0.00000000E+00-0.00000000E+00-1.30752693E-03
 7  6-0.00000000E+00-0.00000000E+00 2.17313059E-03-0.00000000E+00-0.00000000E+00
 7  7-9.81252069E-07 9.81252069E-07-0.00000000E+00-0.00000000E+00-0.00000000E+00
 7  8-0.00000000E+00-1.18145987E-05 1.18145987E-05-0.00000000E+00-0.00000000E+00
 7  9-0.00000000E+00-0.00000000E+00 1.18255956E-04-1.18255956E-04-0.00000000E+00
 7 10-0.00000000E+00-0.00000000E+00-0.00000000E+00 4.43735944E-05-4.43735944E-05
 7 11-0.00000000E+00-0.00000000E+00-0.00000000E+00-0.00000000E+00 7.11127592E-04
 7 12-7.11127592E-04-0.00000000E+00-0.00000000E+00-0.00000000E+00-0.00000000E+00
 7 13 3.39719554E-05-0.00000000E+00-0.00000000E+00-0.00000000E+00-0.00000000E+00
 7 14 1.51927203E-05-0.00000000E+00-6.07708813E-05-0.00000000E+00-0.00000000E+00
 7 15-4.37002654E-05-0.00000000E+00-0.00000000E+00-0.00000000E+00-0.00000000E+00
 7 16-1.95433528E-05-0.00000000E+00 7.81734113E-05-0.00000000E+00-0.00000000E+00
 7 17-1.80997074E-04-5.14685806E-05-0.00000000E+00-0.00000000E+00-0.00000000E+00
 7 18-0.00000000E+00-0.00000000E+00-0.00000000E+00-0.00000000E+00 2.04176924E-04
 7 19 1.13766180E-04-1.13766180E-04-0.00000000E+00-0.00000000E+00-0.00000000E+00
 7 20-4.08076052E-01 1.78388580E-03-3.62642586E-03 2.18785252E-03 4.80637724E-04
 7 21-8.14452292E-04-0.00000000E+00-4.37113917E-04 6.90811533E-04-0.00000000E+00
 7 22 3.73644902E-04-5.03372599E-04-0.00000000E+00 1.47963220E-05-4.04070493E-05
 7 23 2.56107273E-05 4.22543639E-05-0.00000000E+00-0.00000000E+00-2.18081688E-05
 7 24 7.03095768E-06 1.47772111E-05 8.40571701E-06-0.00000000E+00-0.00000000E+00
 7 25 7.87280231E-06 1.23503838E-05-0.00000000E+00-7.73953886E-07-0.00000000E+00
 7 26-1.82689529E-05-0.00000000E+00 7.70648020E-06-1.57958247E-05-0.00000000E+00
 7 27-4.08076052E-01 1.78388580E-03-3.62642586E-03 2.18785252E-03 4.80637724E-04
 7 28 8.14452292E-04-0.00000000E+00-4.37113917E-04-6.90811533E-04-0.00000000E+00
 7 29 3.73644902E-04 5.03372599E-04-0.00000000E+00 1.47963220E-05-4.04070493E-05
 7 30 2.56107273E-05-4.22543639E-05-0.00000000E+00-0.00000000E+00-2.18081688E-05
 7 31 7.03095768E-06 1.47772111E-05-8.40571701E-06-0.00000000E+00-0.00000000E+00
 7 32 7.87280231E-06-1.23503838E-05-0.00000000E+00 7.73953886E-07-0.00000000E+00
 7 33-1.82689529E-05-0.00000000E+00 7.70648020E-06 1.57958247E-05-0.00000000E+00
 7 34 8.16152104E-01-3.56777160E-03 7.25285172E-03-4.37570504E-03 1.89131047E-03
 7 35-0.00000000E+00-0.00000000E+00-1.63363459E-03-0.00000000E+00-0.00000000E+00
 7 36 1.24551182E-03-0.00000000E+00-0.00000000E+00 1.16593959E-04-6.53725041E-05
 7 37-5.12214547E-05-0.00000000E+00-0.00000000E+00-0.00000000E+00 1.29662234E-05
 7 38 1.65881989E-05-2.95544223E-05-0.00000000E+00-0.00000000E+00-0.00000000E+00
 7 39-4.39640064E-05-0.00000000E+00-0.00000000E+00-0.00000000E+00-0.00000000E+00
 7 40 2.39182529E-05-0.00000000E+00 3.50656512E-05-0.00000000E+00-0.00000000E+00
 8  1 0.00000000E+00 0.00000000E+00 0.00000000E+00 0.00000000E+00 0.00000000E+00
 8  2 0.00000000E+00 0.00000000E+00 0.00000000E+00 0.00000000E+00 0.00000000E+00
 8  3-1.39562862E-05 0.00000000E+00 0.00000000E+00 9.65599145E-05 0.00000000E+00
 8  4 0.00000000E+00-5.03352133E-04 0.00000000E+00 0.00000000E+00 9.80746101E-04
 8  5 0.00000000E+00 0.00000000E+00-1.33005385E-03 0.00000000E+00 0.00000000E+00
 8  6 1.30752693E-03 0.00000000E+00 0.00000000E+00-2.17313059E-03 0.00000000E+00
 8  7 0.00000000E+00 0.00000000E+00 0.00000000E+00-1.13305229E-06 0.00000000E+00
 8  8 0.00000000E+00 0.00000000E+00 0.00000000E+00 0.00000000E+00-1.36423235E-05
 8  9 0.00000000E+00 0.00000000E+00 0.00000000E+00 0.00000000E+00 0.00000000E+00
 8 10 1.36550216E-04 0.00000000E+00 0.00000000E+00 0.00000000E+00 0.00000000E+00
 8 11 0.00000000E+00 5.12382134E-05 0.00000000E+00 0.00000000E+00 0.00000000E+00
 8 12 0.00000000E+00 0.00000000E+00 8.21139414E-04 0.00000000E+00 0.00000000E+00
 8 13 0.00000000E+00-3.39719554E-05 0.00000000E+00-1.51927203E-05 0.00000000E+00
 8 14 0.00000000E+00 0.00000000E+00 0.00000000E+00 6.07708813E-05 0.00000000E+00
 8 15 0.00000000E+00 4.37002654E-05 0.00000000E+00 1.95433528E-05 0.00000000E+00
 8 16 0.00000000E+00 0.00000000E+00 0.00000000E+00-7.81734113E-05 0.00000000E+00
 8 17 0.00000000E+00 0.00000000E+00 0.00000000E+00 1.26770349E-04 0.00000000E+00
 8 18-2.24684686E-04 0.00000000E+00 0.00000000E+00 0.00000000E+00 0.00000000E+00
 8 19 0.00000000E+00 0.00000000E+00 0.00000000E+00 0.00000000E+00 1.31365869E-04
 8 20-7.06808456E-01 3.08978084E-03-6.28115384E-03 3.78947172E-03 8.14452292E-04
 8 21-1.42108622E-03 0.00000000E+00-6.90811533E-04 1.23479437E-03 0.00000000E+00
 8 22 5.03372599E-04-9.54889513E-04 0.00000000E+00 1.44138120E-05-5.87728930E-05
 8 23 4.43590810E-05 8.06628180E-05 0.00000000E+00 0.00000000E+00-5.51787576E-06
 8 24-2.00770047E-05 2.55948805E-05-6.94419149E-06 0.00000000E+00 0.00000000E+00
 8 25 1.22677265E-05 1.24717975E-05 0.00000000E+00 9.21325529E-06 0.00000000E+00
 8 26-3.22547070E-05 0.00000000E+00 1.57958247E-05-2.59459275E-05 0.00000000E+00
 8 27 7.06808456E-01-3.08978084E-03 6.28115384E-03-3.78947172E-03-8.14452292E-04
 8 28-1.42108622E-03 0.00000000E+00 6.90811533E-04 1.23479437E-03 0.00000000E+00
 8 29-5.03372599E-04-9.54889513E-04 0.00000000E+00-1.44138120E-05 5.87728930E-05
 8 30-4.43590810E-05 8.06628180E-05 0.00000000E+00 0.00000000E+00 5.51787576E-06
 8 31 2.00770047E-05-2.55948805E-05-6.94419149E-06 0.00000000E+00 0.00000000E+00
 8 32-1.22677265E-05 1.24717975E-05 0.00000000E+00 9.21325529E-06 0.00000000E+00
 8 33 3.22547070E-05 0.00000000E+00-1.57958247E-05-2.59459275E-05 0.00000000E+00
 8 34 0.00000000E+00 0.00000000E+00 0.00000000E+00 0.00000000E+00 0.00000000E+00
 8 35-1.04134739E-05 0.00000000E+00 0.00000000E+00 3.82736922E-05 0.00000000E+00
 8 36 0.00000000E+00-8.30225968E-05 0.00000000E+00 0.00000000E+00 0.00000000E+00
 8 37 0.00000000E+00 7.47611295E-06 0.00000000E+00 0.00000000E+00 0.00000000E+00
 8 38 0.00000000E+00 0.00000000E+00-2.15033204E-05 0.00000000E+00 0.00000000E+00
 8 39 0.00000000E+00 3.27480668E-06 0.00000000E+00-5.80685767E-06 0.00000000E+00
 8 40 0.00000000E+00 0.00000000E+00 0.00000000E+00 1.41324347E-06 0.00000000E+00
 9  1 1.51542225E-01-5.42483045E-01 1.12579611E+00 1.40542567E-02-1.75616474E-02
 9  2-3.71005712E-03 2.04591315E-03-4.92852320E-04 1.20073549E-04-0.00000000E+00
 9  3-0.00000000E+00-0.00000000E+00-0.00000000E+00-0.00000000E+00-0.00000000E+00
 9  4-0.00000000E+00-0.00000000E+00-0.00000000E+00-0.00000000E+00-0.00000000E+00
 9  5-0.00000000E+00-0.00000000E+00-0.00000000E+00-0.00000000E+00-0.00000000E+00
 9  6-0.00000000E+00-0.00000000E+00-0.00000000E+00-0.00000000E+00-0.00000000E+00
 9  7 1.58624372E-04 1.58624372E-04-3.17248745E-04-0.00000000E+00-0.00000000E+00
 9  8-0.00000000E+00 9.88607546E-05 9.88607546E-05-1.97721509E-04-0.00000000E+00
 9  9-0.00000000E+00-0.00000000E+00-3.84529866E-05-3.84529866E-05 7.69059732E-05
 9 10-0.00000000E+00-0.00000000E+00-0.00000000E+00 5.65062385E-05 5.65062385E-05
 9 11-1.13012477E-04-0.00000000E+00-0.00000000E+00-0.00000000E+00-1.16927505E-05
 9 12-1.16927505E-05 2.33855009E-05-0.00000000E+00-0.00000000E+00-0.00000000E+00
 9 13 2.22064787E-05-0.00000000E+00-0.00000000E+00-0.00000000E+00-0.00000000E+00
 9 14-2.97931175E-05-0.00000000E+00-0.00000000E+00-0.00000000E+00-0.00000000E+00
 9 15 4.51284373E-05-0.00000000E+00-0.00000000E+00-0.00000000E+00-0.00000000E+00
 9 16-6.05461522E-05-0.00000000E+00-0.00000000E+00-0.00000000E+00-0.00000000E+00
 9 17 4.76752466E-06 4.76752466E-06 1.27133991E-05-0.00000000E+00-0.00000000E+00
 9 18-0.00000000E+00-0.00000000E+00-0.00000000E+00-0.00000000E+00 2.79157660E-06
 9 19-1.11663064E-05-1.11663064E-05-0.00000000E+00-0.00000000E+00-0.00000000E+00
 9 20-1.16927856E-06 5.88765569E-06 1.05155383E-05-5.46710083E-05 2.19189665E-06
 9 21-3.79647636E-06-0.00000000E+00-4.26139771E-06 7.38095734E-06-0.00000000E+00
 9 22-2.96555346E-05 5.13648926E-05-0.00000000E+00-1.22594842E-06 6.67234761E-06
 9 23-5.44639919E-06-7.89829603E-06-0.00000000E+00-0.00000000E+00 4.73499316E-06
 9 24-2.52380110E-05 2.05030179E-05 2.99730042E-05-0.00000000E+00-0.00000000E+00
 9 25 1.40388217E-06 1.40601301E-06-0.00000000E+00 6.28788135E-07-0.00000000E+00
 9 26-3.33562957E-06-0.00000000E+00 1.45212400E-06-2.51515254E-06-0.00000000E+00
 9 27-1.16927856E-06 5.88765569E-06 1.05155383E-05-5.46710083E-05 2.19189665E-06
 9 28 3.79647636E-06-0.00000000E+00-4.26139771E-06-7.38095734E-06-0.00000000E+00
 9 29-2.96555346E-05-5.13648926E-05-0.00000000E+00-1.22594842E-06 6.67234761E-06
 9 30-5.44639919E-06 7.89829603E-06-0.00000000E+00-0.00000000E+00 4.73499316E-06
 9 31-2.52380110E-05 2.05030179E-05-2.99730042E-05-0.00000000E+00-0.00000000E+00
 9 32 1.40388217E-06-1.40601301E-06-0.00000000E+00-6.28788135E-07-0.00000000E+00
 9 33-3.33562957E-06-0.00000000E+00 1.45212400E-06 2.51515254E-06-0.00000000E+00
 9 34-1.16927856E-06 5.88765569E-06 1.05155383E-05-5.46710083E-05-4.38379329E-06