 !Step 1: Energy convergence on D3h RhF3, fluorine 2s orbs filled
 $system kdiag=3 mwords=200 memddi=3000 parall=.t. $end
 $contrl runtyp=energy ispher=1 relwfn=LUT-IOTC $end
 $contrl icut=9 itol=20 inttyp=rysquad qmttol=1.0d-05 nosym=0 $end
 $scf    npunch=2 conv=1.0d-06 dirscf=.t. soscf=.f. ethrsh=10.0 $end
 $contrl scftyp=rhf  mult=1 maxit=200 icharg=24 $end
 $guess  guess=moread norb=168 purify=.t. $end
 $basis  gbasis=SPKrTZP $end
 -mcscf  cistep=gmcci fullnr=.t. finci=mos
         acurcy=1.d-6 maxit=100 $end
 $trans  dirtrf=.t. $end
 -mrmp   mrpt=gmcpt rdvecs=.f. $end
 -gmcpt  nmofzc=27 nmodoc=0 nmoact=5 nelact=5 stsym(1)=A nsolut=100
         reftyp=ormas nspace=1 mstart(1)=28 mine(1)=5 maxe(1)=5
         kstate(1)=1
         wstate(1)=1
         iwgt=0 thrwgt=-1.0 krot=.f. kszdoe=.f. knospn=.f.
         thrde=-1.0 edshft=0.02 $end
 $statpt hssend=.t. $end
 $data
 RhF3 filled 2s of F calculation
 DNH 3

 Rh    45.0    0.0  0.0  0.0
 F      9.0    2.07 0.0  0.0
 $end
--- CLOSED SHELL ORBITALS --- GENERATED AT Sat Dec 16 16:28:57 2023
 FeH4- 10 states calculation at opt geometry.                                   
E(RHF)=    -4916.3139639807, E(NUC)=  346.4695025410,    9 ITERS
 $VEC   
 1  1 9.95680864E-01 1.09964775E-02-1.14545567E-02-1.17728125E-02 1.44248679E-02
 1  2 8.53689339E-03-4.91426251E-03 1.28368047E-03-3.03167644E-04 0.00000000E+00
 1  3 0.00000000E+00 0.00000000E+00 0.00000000E+00 0.00000000E+00 0.00000000E+00
 1  4 0.00000000E+00 0.00000000E+00 0.00000000E+00 0.00000000E+00 0.00000000E+00
 1  5 0.00000000E+00 0.00000000E+00 0.00000000E+00 0.00000000E+00 0.00000000E+00
 1  6 0.00000000E+00 0.00000000E+00 0.00000000E+00 0.00000000E+00 0.00000000E+00
 1  7 2.22606151E-06 2.22606151E-06-4.45212302E-06 0.00000000E+00 0.00000000E+00
 1  8 0.00000000E+00-9.32781405E-06-9.32781405E-06 1.86556281E-05 0.00000000E+00
 1  9 0.00000000E+00 0.00000000E+00 3.56681860E-05 3.56681860E-05-7.13363719E-05
 1 10 0.00000000E+00 0.00000000E+00 0.00000000E+00-9.51191167E-05-9.51191167E-05
 1 11 1.90238233E-04 0.00000000E+00 0.00000000E+00 0.00000000E+00 2.20186825E-05
 1 12 2.20186825E-05-4.40373650E-05 0.00000000E+00 0.00000000E+00 0.00000000E+00
 1 13 3.41666857E-05 0.00000000E+00 0.00000000E+00 0.00000000E+00 0.00000000E+00
 1 14-4.58394191E-05 0.00000000E+00 0.00000000E+00 0.00000000E+00 0.00000000E+00
 1 15-1.11625194E-04 0.00000000E+00 0.00000000E+00 0.00000000E+00 0.00000000E+00
 1 16 1.49760913E-04 0.00000000E+00 0.00000000E+00 0.00000000E+00 0.00000000E+00
 1 17-8.62244355E-06-8.62244355E-06-2.29931828E-05 0.00000000E+00 0.00000000E+00
 1 18 0.00000000E+00 0.00000000E+00 0.00000000E+00 0.00000000E+00-5.04878597E-06
 1 19 2.01951439E-05 2.01951439E-05 0.00000000E+00 0.00000000E+00 0.00000000E+00
 1 20-3.31394084E-06-3.56847520E-05 1.88845420E-05 8.00851783E-05-8.07373975E-06
 1 21 1.39841275E-05 0.00000000E+00 1.71940025E-05-2.97808859E-05 0.00000000E+00
 1 22 5.53521208E-05-9.58726855E-05 0.00000000E+00 3.41046239E-06-1.56038233E-05
 1 23 1.21933609E-05 1.90142857E-05 0.00000000E+00 0.00000000E+00-1.22289985E-05
 1 24 5.83438067E-05-4.61148082E-05-7.05728052E-05 0.00000000E+00 0.00000000E+00
 1 25-4.20896932E-06-2.88596850E-06 0.00000000E+00-1.29064435E-06 0.00000000E+00
 1 26 8.62754037E-06 0.00000000E+00-2.98061545E-06 5.16257740E-06 0.00000000E+00
 1 27-3.31394084E-06-3.56847520E-05 1.88845420E-05 8.00851783E-05-8.07373975E-06
 1 28-1.39841275E-05 0.00000000E+00 1.71940025E-05 2.97808859E-05 0.00000000E+00
 1 29 5.53521208E-05 9.58726855E-05 0.00000000E+00 3.41046239E-06-1.56038233E-05
 1 30 1.21933609E-05-1.90142857E-05 0.00000000E+00 0.00000000E+00-1.22289985E-05
 1 31 5.83438067E-05-4.61148082E-05 7.05728052E-05 0.00000000E+00 0.00000000E+00
 1 32-4.20896932E-06 2.88596850E-06 0.00000000E+00 1.29064435E-06 0.00000000E+00
 1 33 8.62754037E-06 0.00000000E+00-2.98061545E-06-5.16257740E-06 0.00000000E+00
 1 34-3.31394084E-06-3.56847520E-05 1.88845420E-05 8.00851783E-05 1.61474795E-05
 1 35 0.00000000E+00 0.00000000E+00-3.43880050E-05 0.00000000E+00 0.00000000E+00
 1 36-1.10704242E-04 0.00000000E+00 0.00000000E+00-2.51109661E-05 1.29176052E-05
 1 37 1.21933609E-05 0.00000000E+00 0.00000000E+00 0.00000000E+00 9.36302093E-05
 1 38-4.75154011E-05-4.61148082E-05 0.00000000E+00 0.00000000E+00 0.00000000E+00
 1 39-9.20761340E-06 0.00000000E+00 0.00000000E+00 0.00000000E+00 0.00000000E+00
 1 40 6.39207878E-06 0.00000000E+00 5.96123091E-06 0.00000000E+00 0.00000000E+00
 2  1-3.51775177E-01 1.04702386E+00 2.73367837E-02-5.26469437E-04-8.36028221E-03
 2  2 4.19310154E-03-3.09982791E-03 8.47426456E-04-2.15687564E-04-0.00000000E+00
 2  3-0.00000000E+00-0.00000000E+00-0.00000000E+00-0.00000000E+00-0.00000000E+00
 2  4-0.00000000E+00-0.00000000E+00-0.00000000E+00-0.00000000E+00-0.00000000E+00
 2  5-0.00000000E+00-0.00000000E+00-0.00000000E+00-0.00000000E+00-0.00000000E+00
 2  6-0.00000000E+00-0.00000000E+00-0.00000000E+00-0.00000000E+00-0.00000000E+00
 2  7 6.50087739E-06 6.50087739E-06-1.30017548E-05-0.00000000E+00-0.00000000E+00
 2  8-0.00000000E+00-9.38317399E-06-9.38317399E-06 1.87663480E-05-0.00000000E+00
 2  9-0.00000000E+00-0.00000000E+00 2.98827947E-05 2.98827947E-05-5.97655893E-05
 2 10-0.00000000E+00-0.00000000E+00-0.00000000E+00-8.36376923E-05-8.36376923E-05
 2 11 1.67275385E-04-0.00000000E+00-0.00000000E+00-0.00000000E+00 1.68251367E-05
 2 12 1.68251367E-05-3.36502734E-05-0.00000000E+00-0.00000000E+00-0.00000000E+00
 2 13 2.81643843E-05-0.00000000E+00-0.00000000E+00-0.00000000E+00-0.00000000E+00
 2 14-3.77864868E-05-0.00000000E+00-0.00000000E+00-0.00000000E+00-0.00000000E+00
 2 15-9.94191294E-05-0.00000000E+00-0.00000000E+00-0.00000000E+00-0.00000000E+00
 2 16 1.33384759E-04-0.00000000E+00-0.00000000E+00-0.00000000E+00-0.00000000E+00
 2 17-7.60825193E-06-7.60825193E-06-2.02886718E-05-0.00000000E+00-0.00000000E+00
 2 18-0.00000000E+00-0.00000000E+00-0.00000000E+00-0.00000000E+00-4.45493617E-06
 2 19 1.78197447E-05 1.78197447E-05-0.00000000E+00-0.00000000E+00-0.00000000E+00
 2 20-2.03027797E-06-2.86087929E-05 2.55785373E-06 8.80622311E-05-6.20313516E-06
 2 21 1.07441453E-05-0.00000000E+00 9.98338695E-06-1.72917334E-05-0.00000000E+00
 2 22 5.22309638E-05-9.04666831E-05-0.00000000E+00 3.47034451E-06-1.64764928E-05
 2 23 1.30061483E-05 1.99468374E-05-0.00000000E+00-0.00000000E+00-1.11364740E-05
 2 24 5.40837997E-05-4.29473256E-05-6.52202737E-05-0.00000000E+00-0.00000000E+00
 2 25-6.67702683E-06-4.77894653E-06-0.00000000E+00-2.13720986E-06-0.00000000E+00
 2 26 1.38938463E-05-0.00000000E+00-4.93567475E-06 8.54883944E-06-0.00000000E+00
 2 27-2.03027797E-06-2.86087929E-05 2.55785373E-06 8.80622311E-05-6.20313516E-06
 2 28-1.07441453E-05-0.00000000E+00 9.98338695E-06 1.72917334E-05-0.00000000E+00
 2 29 5.22309638E-05 9.04666831E-05-0.00000000E+00 3.47034451E-06-1.64764928E-05
 2 30 1.30061483E-05-1.99468374E-05-0.00000000E+00-0.00000000E+00-1.11364740E-05
 2 31 5.40837997E-05-4.29473256E-05 6.52202737E-05-0.00000000E+00-0.00000000E+00
 2 32-6.67702683E-06 4.77894653E-06-0.00000000E+00 2.13720986E-06-0.00000000E+00
 2 33 1.38938463E-05-0.00000000E+00-4.93567475E-06-8.54883944E-06-0.00000000E+00
 2 34-2.03027797E-06-2.86087929E-05 2.55785373E-06 8.80622311E-05 1.24062703E-05
 2 35-0.00000000E+00-0.00000000E+00-1.99667739E-05-0.00000000E+00-0.00000000E+00
 2 36-1.04461928E-04-0.00000000E+00-0.00000000E+00-2.64499115E-05 1.34437632E-05
 2 37 1.30061483E-05-0.00000000E+00-0.00000000E+00-0.00000000E+00 8.66939365E-05
 2 38-4.37466109E-05-4.29473256E-05-0.00000000E+00-0.00000000E+00-0.00000000E+00
 2 39-1.49544050E-05-0.00000000E+00-0.00000000E+00-0.00000000E+00-0.00000000E+00
 2 40 1.01920902E-05-0.00000000E+00 9.87134950E-06-0.00000000E+00-0.00000000E+00
 3  1-0.00000000E+00-0.00000000E+00-0.00000000E+00-0.00000000E+00-0.00000000E+00
 3  2-0.00000000E+00-0.00000000E+00-0.00000000E+00-0.00000000E+00 9.93652963E-01
 3  3-0.00000000E+00-0.00000000E+00 1.25934365E-02-0.00000000E+00-0.00000000E+00
 3  4 4.95125424E-03-0.00000000E+00-0.00000000E+00-4.88806979E-03-0.00000000E+00
 3  5-0.00000000E+00 2.72730910E-03-0.00000000E+00-0.00000000E+00-1.44099653E-03
 3  6-0.00000000E+00-0.00000000E+00 2.96486108E-04-0.00000000E+00-0.00000000E+00
 3  7 2.34525738E-06-2.34525738E-06-0.00000000E+00-0.00000000E+00-0.00000000E+00
 3  8-0.00000000E+00-1.59205317E-05 1.59205317E-05-0.00000000E+00-0.00000000E+00
 3  9-0.00000000E+00-0.00000000E+00 6.11317304E-05-6.11317304E-05-0.00000000E+00
 3 10-0.00000000E+00-0.00000000E+00-0.00000000E+00-1.73437930E-04 1.73437930E-04
 3 11-0.00000000E+00-0.00000000E+00-0.00000000E+00-0.00000000E+00 6.46079787E-05
 3 12-6.46079787E-05-0.00000000E+00-0.00000000E+00-0.00000000E+00-0.00000000E+00
 3 13 1.15292663E-05-0.00000000E+00-0.00000000E+00-0.00000000E+00-0.00000000E+00
 3 14 5.15604464E-06-0.00000000E+00-2.06241786E-05-0.00000000E+00-0.00000000E+00
 3 15-3.85186959E-05-0.00000000E+00-0.00000000E+00-0.00000000E+00-0.00000000E+00
 3 16-1.72260845E-05-0.00000000E+00 6.89043380E-05-0.00000000E+00-0.00000000E+00
 3 17-3.25145524E-05-9.88062359E-06-0.00000000E+00-0.00000000E+00-0.00000000E+00
 3 18-0.00000000E+00-0.00000000E+00-0.00000000E+00-0.00000000E+00 3.72361098E-05
 3 19 1.98796075E-05-1.98796075E-05-0.00000000E+00-0.00000000E+00-0.00000000E+00
 3 20 2.56957291E-06 3.21685458E-05-3.71259299E-05-1.26708909E-05 3.85702770E-06
 3 21-6.83889069E-06-0.00000000E+00-6.44396345E-06 8.22383379E-06-0.00000000E+00
 3 22-3.91986679E-05 6.35254816E-05-0.00000000E+00-3.85124003E-06 1.30116973E-05
 3 23-9.16045728E-06-1.20570251E-05-0.00000000E+00-0.00000000E+00 1.02125062E-05
 3 24-4.03920579E-05 3.01795517E-05 4.20945669E-05-0.00000000E+00-0.00000000E+00
 3 25 5.74017380E-06 9.57080409E-06-0.00000000E+00-5.35222613E-06-0.00000000E+00
 3 26-9.63267897E-06-0.00000000E+00 1.93142768E-06-7.48835500E-06-0.00000000E+00
 3 27 2.56957291E-06 3.21685458E-05-3.71259299E-05-1.26708909E-05 3.85702770E-06
 3 28 6.83889069E-06-0.00000000E+00-6.44396345E-06-8.22383379E-06-0.00000000E+00
 3 29-3.91986679E-05-6.35254816E-05-0.00000000E+00-3.85124003E-06 1.30116973E-05
 3 30-9.16045728E-06 1.20570251E-05-0.00000000E+00-0.00000000E+00 1.02125062E-05
 3 31-4.03920579E-05 3.01795517E-05-4.20945669E-05-0.00000000E+00-0.00000000E+00
 3 32 5.74017380E-06-9.57080409E-06-0.00000000E+00 5.35222613E-06-0.00000000E+00
 3 33-9.63267897E-06-0.00000000E+00 1.93142768E-06 7.48835500E-06-0.00000000E+00
 3 34-5.13914582E-06-6.43370915E-05 7.42518599E-05 2.53417817E-05 1.57023338E-05
 3 35-0.00000000E+00-0.00000000E+00-2.06880614E-05-0.00000000E+00-0.00000000E+00
 3 36-1.49228030E-04-0.00000000E+00-0.00000000E+00-3.56774637E-05 1.73565491E-05
 3 37 1.83209146E-05-0.00000000E+00-0.00000000E+00-0.00000000E+00 1.18623684E-04
 3 38-5.82645808E-05-6.03591034E-05-0.00000000E+00-0.00000000E+00-0.00000000E+00
 3 39-2.19700188E-05-0.00000000E+00-0.00000000E+00-0.00000000E+00-0.00000000E+00
 3 40 1.45742344E-05-0.00000000E+00 1.49016390E-05-0.00000000E+00-0.00000000E+00
 4  1-0.00000000E+00-0.00000000E+00-0.00000000E+00-0.00000000E+00-0.00000000E+00
 4  2-0.00000000E+00-0.00000000E+00-0.00000000E+00-0.00000000E+00-0.00000000E+00
 4  3 9.93652963E-01-0.00000000E+00-0.00000000E+00 1.25934365E-02-0.00000000E+00
 4  4-0.00000000E+00 4.95125424E-03-0.00000000E+00-0.00000000E+00-4.88806979E-03
 4  5-0.00000000E+00-0.00000000E+00 2.72730910E-03-0.00000000E+00-0.00000000E+00
 4  6-1.44099653E-03-0.00000000E+00-0.00000000E+00 2.96486108E-04-0.00000000E+00
 4  7-0.00000000E+00-0.00000000E+00-0.00000000E+00-2.70806995E-06-0.00000000E+00
 4  8-0.00000000E+00-0.00000000E+00-0.00000000E+00-0.00000000E+00 1.83834466E-05
 4  9-0.00000000E+00-0.00000000E+00-0.00000000E+00-0.00000000E+00-0.00000000E+00
 4 10-7.05888420E-05-0.00000000E+00-0.00000000E+00-0.00000000E+00-0.00000000E+00
 4 11-0.00000000E+00 2.00268871E-04-0.00000000E+00-0.00000000E+00-0.00000000E+00
 4 12-0.00000000E+00-0.00000000E+00-7.46028678E-05-0.00000000E+00-0.00000000E+00
 4 13-0.00000000E+00 1.15292663E-05-0.00000000E+00 5.15604464E-06-0.00000000E+00
 4 14-0.00000000E+00-0.00000000E+00-0.00000000E+00-2.06241786E-05-0.00000000E+00
 4 15-0.00000000E+00-3.85186959E-05-0.00000000E+00-1.72260845E-05-0.00000000E+00
 4 16-0.00000000E+00-0.00000000E+00-0.00000000E+00 6.89043380E-05-0.00000000E+00
 4 17-0.00000000E+00-0.00000000E+00-0.00000000E+00-2.34929197E-05-0.00000000E+00
 4 18 4.06025616E-05-0.00000000E+00-0.00000000E+00-0.00000000E+00-0.00000000E+00
 4 19-0.00000000E+00-0.00000000E+00-0.00000000E+00-0.00000000E+00-2.29549934E-05
 4 20-4.45063084E-06-5.57175557E-05 6.43039969E-05 2.19466268E-05-6.83889069E-06
 4 21 1.17538985E-05-0.00000000E+00 8.22383379E-06-1.59400288E-05-0.00000000E+00
 4 22 6.35254816E-05-1.12551576E-04-0.00000000E+00 2.50850135E-06-1.83748788E-05
 4 23 1.58663774E-05 2.36580748E-05-0.00000000E+00-0.00000000E+00-1.03187059E-05
 4 24 6.25912228E-05-5.22725169E-05-7.78231778E-05-0.00000000E+00-0.00000000E+00
 4 25-7.62625178E-06-2.80456312E-06-0.00000000E+00-6.81551895E-06-0.00000000E+00
 4 26 1.77200454E-05-0.00000000E+00-7.48835500E-06 1.05782352E-05-0.00000000E+00
 4 27 4.45063084E-06 5.57175557E-05-6.43039969E-05-2.19466268E-05 6.83889069E-06
 4 28 1.17538985E-05-0.00000000E+00-8.22383379E-06-1.59400288E-05-0.00000000E+00
 4 29-6.35254816E-05-1.12551576E-04-0.00000000E+00-2.50850135E-06 1.83748788E-05
 4 30-1.58663774E-05 2.36580748E-05-0.00000000E+00-0.00000000E+00 1.03187059E-05
 4 31-6.25912228E-05 5.22725169E-05-7.78231778E-05-0.00000000E+00-0.00000000E+00
 4 32 7.62625178E-06-2.80456312E-06-0.00000000E+00-6.81551895E-06-0.00000000E+00
 4 33-1.77200454E-05-0.00000000E+00 7.48835500E-06 1.05782352E-05-0.00000000E+00
 4 34-0.00000000E+00-0.00000000E+00-0.00000000E+00-0.00000000E+00-0.00000000E+00
 4 35-9.14076809E-08-0.00000000E+00-0.00000000E+00-1.69593080E-06-0.00000000E+00
 4 36-0.00000000E+00-2.52221404E-06-0.00000000E+00-0.00000000E+00-0.00000000E+00
 4 37-0.00000000E+00 2.77469471E-06-0.00000000E+00-0.00000000E+00-0.00000000E+00
 4 38-0.00000000E+00-0.00000000E+00-4.91324914E-06-0.00000000E+00-0.00000000E+00
 4 39-0.00000000E+00-4.88054499E-06-0.00000000E+00 8.93991431E-06-0.00000000E+00
 4 40-0.00000000E+00-0.00000000E+00-0.00000000E+00-2.39197610E-06-0.00000000E+00
 5  1 0.00000000E+00 0.00000000E+00 0.00000000E+00 0.00000000E+00 0.00000000E+00
 5  2 0.00000000E+00 0.00000000E+00 0.00000000E+00 0.00000000E+00 0.00000000E+00
 5  3 0.00000000E+00 9.93663141E-01 0.00000000E+00 0.00000000E+00 1.25793191E-02
 5  4 0.00000000E+00 0.00000000E+00 4.86453045E-03 0.00000000E+00 0.00000000E+00
 5  5-4.68376145E-03 0.00000000E+00 0.00000000E+00 2.41997836E-03 0.00000000E+00
 5  6 0.00000000E+00-1.14279099E-03 0.00000000E+00 0.00000000E+00 3.11740020E-04
 5  7 0.00000000E+00 0.00000000E+00 0.00000000E+00 0.00000000E+00 0.00000000E+00
 5  8 0.00000000E+00 0.00000000E+00 0.00000000E+00 0.00000000E+00 0.00000000E+00
 5  9 0.00000000E+00 0.00000000E+00 0.00000000E+00 0.00000000E+00 0.00000000E+00
 5 10 0.00000000E+00 0.00000000E+00 0.00000000E+00 0.00000000E+00 0.00000000E+00
 5 11 0.00000000E+00 0.00000000E+00 0.00000000E+00 0.00000000E+00 0.00000000E+00
 5 12 0.00000000E+00 0.00000000E+00 0.00000000E+00 0.00000000E+00 0.00000000E+00
 5 13 0.00000000E+00 0.00000000E+00-1.53490960E-06 0.00000000E+00 1.02964866E-06
 5 14 0.00000000E+00 1.02964866E-06 0.00000000E+00 0.00000000E+00 0.00000000E+00
 5 15 0.00000000E+00 0.00000000E+00 2.53107440E-06 0.00000000E+00-1.69789632E-06
 5 16 0.00000000E+00-1.69789632E-06 0.00000000E+00 0.00000000E+00 0.00000000E+00
 5 17 0.00000000E+00 0.00000000E+00 0.00000000E+00 0.00000000E+00-2.18867972E-06
 5 18 0.00000000E+00 0.00000000E+00 0.00000000E+00 0.00000000E+00 0.00000000E+00
 5 19 0.00000000E+00 0.00000000E+00 0.00000000E+00 2.93642198E-06 0.00000000E+00
 5 20 0.00000000E+00 0.00000000E+00 0.00000000E+00 0.00000000E+00 0.00000000E+00
 5 21 0.00000000E+00-3.15455073E-06 0.00000000E+00 0.00000000E+00 7.80576396E-06
 5 22 0.00000000E+00 0.00000000E+00-1.55214568E-05 0.00000000E+00 0.00000000E+00
 5 23 0.00000000E+00 0.00000000E+00-2.85971605E-06 4.95317350E-06 0.00000000E+00
 5 24 0.00000000E+00 0.00000000E+00 0.00000000E+00 6.81080558E-06-1.17966613E-05
 5 25 0.00000000E+00 0.00000000E+00-6.15144333E-06 0.00000000E+00 6.88020293E-07
 5 26 0.00000000E+00 7.56500698E-06 0.00000000E+00 0.00000000E+00-6.87698668E-06
 5 27 0.00000000E+00 0.00000000E+00 0.00000000E+00 0.00000000E+00 0.00000000E+00
 5 28 0.00000000E+00-3.15455073E-06 0.00000000E+00 0.00000000E+00 7.80576396E-06
 5 29 0.00000000E+00 0.00000000E+00-1.55214568E-05 0.00000000E+00 0.00000000E+00
 5 30 0.00000000E+00 0.00000000E+00-2.85971605E-06-4.95317350E-06 0.00000000E+00
 5 31 0.00000000E+00 0.00000000E+00 0.00000000E+00 6.81080558E-06 1.17966613E-05
 5 32 0.00000000E+00 0.00000000E+00-6.15144333E-06 0.00000000E+00 6.88020293E-07
 5 33 0.00000000E+00 7.56500698E-06 0.00000000E+00 0.00000000E+00 6.87698668E-06
 5 34 0.00000000E+00 0.00000000E+00 0.00000000E+00 0.00000000E+00 0.00000000E+00
 5 35 0.00000000E+00-3.15455073E-06 0.00000000E+00 0.00000000E+00 7.80576396E-06
 5 36 0.00000000E+00 0.00000000E+00-1.55214568E-05 0.00000000E+00 0.00000000E+00
 5 37 0.00000000E+00 0.00000000E+00 5.71943211E-06 0.00000000E+00 0.00000000E+00
 5 38 0.00000000E+00 0.00000000E+00 0.00000000E+00-1.36216112E-05 0.00000000E+00
 5 39 0.00000000E+00 0.00000000E+00-6.15144333E-06 0.00000000E+00 1.10035003E-05
 5 40 0.00000000E+00-2.75047305E-06 0.00000000E+00 0.00000000E+00 0.00000000E+00
 6  1-5.02418701E-06-4.70954173E-05-1.95352092E-04-4.46807110E-04 2.11386838E-04
 6  2 9.70723716E-04-7.98186579E-04 1.43530524E-04 7.96208691E-04-0.00000000E+00
 6  3-0.00000000E+00-0.00000000E+00-0.00000000E+00-0.00000000E+00-0.00000000E+00
 6  4-0.00000000E+00-0.00000000E+00-0.00000000E+00-0.00000000E+00-0.00000000E+00
 6  5-0.00000000E+00-0.00000000E+00-0.00000000E+00-0.00000000E+00-0.00000000E+00
 6  6-0.00000000E+00-0.00000000E+00-0.00000000E+00-0.00000000E+00-0.00000000E+00
 6  7 6.91851099E-07 6.91851099E-07-1.38370220E-06-0.00000000E+00-0.00000000E+00
 6  8-0.00000000E+00-7.31170053E-06-7.31170053E-06 1.46234011E-05-0.00000000E+00
 6  9-0.00000000E+00-0.00000000E+00 6.32760197E-05 6.32760197E-05-1.26552039E-04
 6 10-0.00000000E+00-0.00000000E+00-0.00000000E+00-1.58623665E-04-1.58623665E-04
 6 11 3.17247330E-04-0.00000000E+00-0.00000000E+00-0.00000000E+00 2.06993469E-04
 6 12 2.06993469E-04-4.13986937E-04-0.00000000E+00-0.00000000E+00-0.00000000E+00
 6 13 5.99374566E-05-0.00000000E+00-0.00000000E+00-0.00000000E+00-0.00000000E+00
 6 14-8.04145364E-05-0.00000000E+00-0.00000000E+00-0.00000000E+00-0.00000000E+00
 6 15-2.05269187E-04-0.00000000E+00-0.00000000E+00-0.00000000E+00-0.00000000E+00
 6 16 2.75397513E-04-0.00000000E+00-0.00000000E+00-0.00000000E+00-0.00000000E+00
 6 17-2.71016944E-05-2.71016944E-05-7.22711850E-05-0.00000000E+00-0.00000000E+00
 6 18-0.00000000E+00-0.00000000E+00-0.00000000E+00-0.00000000E+00-1.58691273E-05
 6 19 6.34765093E-05 6.34765093E-05-0.00000000E+00-0.00000000E+00-0.00000000E+00
 6 20 5.77351116E-01-3.96350307E-03 5.52750813E-03-2.42852772E-03 9.77091573E-04
 6 21-1.69237225E-03-0.00000000E+00-3.28764254E-04 5.69436391E-04-0.00000000E+00
 6 22 1.13635971E-04-1.96823276E-04-0.00000000E+00 1.09794179E-06 3.39282315E-05
 6 23-3.50261733E-05-3.28302897E-05-0.00000000E+00-0.00000000E+00-2.06879971E-05
 6 24 3.40907959E-05-1.34027988E-05-5.47787930E-05-0.00000000E+00-0.00000000E+00
 6 25-1.42336851E-05-7.31478783E-06-0.00000000E+00-3.27127257E-06-0.00000000E+00
 6 26 2.66511729E-05-0.00000000E+00-7.55468039E-06 1.30850903E-05-0.00000000E+00
 6 27 5.77351116E-01-3.96350307E-03 5.52750813E-03-2.42852772E-03 9.77091573E-04
 6 28 1.69237225E-03-0.00000000E+00-3.28764254E-04-5.69436391E-04-0.00000000E+00
 6 29 1.13635971E-04 1.96823276E-04-0.00000000E+00 1.09794179E-06 3.39282315E-05
 6 30-3.50261733E-05 3.28302897E-05-0.00000000E+00-0.00000000E+00-2.06879971E-05
 6 31 3.40907959E-05-1.34027988E-05 5.47787930E-05-0.00000000E+00-0.00000000E+00
 6 32-1.42336851E-05 7.31478783E-06-0.00000000E+00 3.27127257E-06-0.00000000E+00
 6 33 2.66511729E-05-0.00000000E+00-7.55468039E-06-1.30850903E-05-0.00000000E+00
 6 34 5.77351116E-01-3.96350307E-03 5.52750813E-03-2.42852772E-03-1.95418315E-03
 6 35-0.00000000E+00-0.00000000E+00 6.57528508E-04-0.00000000E+00-0.00000000E+00
 6 36-2.27271943E-04-0.00000000E+00-0.00000000E+00 5.03433764E-05-1.53172031E-05
 6 37-3.50261733E-05-0.00000000E+00-0.00000000E+00-0.00000000E+00 6.14801924E-05
 6 38-4.80773936E-05-1.34027988E-05-0.00000000E+00-0.00000000E+00-0.00000000E+00
 6 39-2.69032693E-05-0.00000000E+00-0.00000000E+00-0.00000000E+00-0.00000000E+00
 6 40 2.09851626E-05-0.00000000E+00 1.51093608E-05-0.00000000E+00-0.00000000E+00
 7  1 0.00000000E+00 0.00000000E+00 0.00000000E+00 0.00000000E+00 0.00000000E+00
 7  2 0.00000000E+00 0.00000000E+00 0.00000000E+00 0.00000000E+00 7.81174000E-06
 7  3 0.00000000E+00 0.00000000E+00-5.34489392E-05 0.00000000E+00 0.00000000E+00
 7  4 2.83414957E-04 0.00000000E+00 0.00000000E+00-5.79608453E-04 0.00000000E+00
 7  5 0.00000000E+00 9.16732033E-04 0.00000000E+00 0.00000000E+00-1.09606314E-03
 7  6 0.00000000E+00 0.00000000E+00 1.40074047E-03 0.00000000E+00 0.00000000E+00
 7  7-8.84142759E-06 8.84142759E-06 0.00000000E+00 0.00000000E+00 0.00000000E+00
 7  8 0.00000000E+00 2.62764891E-05-2.62764891E-05 0.00000000E+00 0.00000000E+00
 7  9 0.00000000E+00 0.00000000E+00 2.45358739E-06-2.45358739E-06 0.00000000E+00
 7 10 0.00000000E+00 0.00000000E+00 0.00000000E+00-3.49737519E-05 3.49737519E-05
 7 11 0.00000000E+00 0.00000000E+00 0.00000000E+00 0.00000000E+00 5.50932539E-04
 7 12-5.50932539E-04 0.00000000E+00 0.00000000E+00 0.00000000E+00 0.00000000E+00
 7 13 2.45017830E-06 0.00000000E+00 0.00000000E+00 0.00000000E+00 0.00000000E+00
 7 14 1.09575305E-06 0.00000000E+00-4.38301218E-06 0.00000000E+00 0.00000000E+00
 7 15-1.26270772E-05 0.00000000E+00 0.00000000E+00 0.00000000E+00 0.00000000E+00
 7 16-5.64700062E-06 0.00000000E+00 2.25880025E-05 0.00000000E+00 0.00000000E+00
 7 17-7.82747725E-05-2.54442347E-05 0.00000000E+00 0.00000000E+00 0.00000000E+00
 7 18 0.00000000E+00 0.00000000E+00 0.00000000E+00 0.00000000E+00 9.10974481E-05
 7 19 4.64015931E-05-4.64015931E-05 0.00000000E+00 0.00000000E+00 0.00000000E+00
 7 20-4.08252604E-01 2.75595875E-03-3.83767377E-03 1.87950278E-03-6.79267511E-04
 7 21 1.20195263E-03 0.00000000E+00 1.88273308E-04-4.14395151E-04 0.00000000E+00
 7 22 8.06074019E-05 4.19670996E-05 0.00000000E+00 9.38729017E-06-3.06879317E-05
 7 23 2.13006415E-05 3.23681196E-05 0.00000000E+00 0.00000000E+00-1.30607926E-05
 7 24 6.14171483E-07 1.24466211E-05 9.33046306E-06 0.00000000E+00 0.00000000E+00
 7 25 7.16348282E-06 7.67002334E-06 0.00000000E+00 2.36177234E-06 0.00000000E+00
 7 26-1.66387638E-05 0.00000000E+00 7.02794303E-06-1.26521885E-05 0.00000000E+00
 7 27-4.08252604E-01 2.75595875E-03-3.83767377E-03 1.87950278E-03-6.79267511E-04
 7 28-1.20195263E-03 0.00000000E+00 1.88273308E-04 4.14395151E-04 0.00000000E+00
 7 29 8.06074019E-05-4.19670996E-05 0.00000000E+00 9.38729017E-06-3.06879317E-05
 7 30 2.13006415E-05-3.23681196E-05 0.00000000E+00 0.00000000E+00-1.30607926E-05
 7 31 6.14171483E-07 1.24466211E-05-9.33046306E-06 0.00000000E+00 0.00000000E+00
 7 32 7.16348282E-06-7.67002334E-06 0.00000000E+00-2.36177234E-06 0.00000000E+00
 7 33-1.66387638E-05 0.00000000E+00 7.02794303E-06 1.26521885E-05 0.00000000E+00
 7 34 8.16505209E-01-5.51191751E-03 7.67534754E-03-3.75900556E-03-2.76111053E-03
 7 35 0.00000000E+00 0.00000000E+00 9.06026764E-04 0.00000000E+00 0.00000000E+00
 7 36 7.91825324E-06 0.00000000E+00 0.00000000E+00 8.98904318E-05-4.72891488E-05
 7 37-4.26012831E-05 0.00000000E+00 0.00000000E+00 0.00000000E+00 1.96048337E-05
 7 38 5.28840854E-06-2.48932422E-05 0.00000000E+00 0.00000000E+00 0.00000000E+00
 7 39-3.83636132E-05 0.00000000E+00 0.00000000E+00 0.00000000E+00 0.00000000E+00
 7 40 2.25280119E-05 0.00000000E+00 2.89421763E-05 0.00000000E+00 0.00000000E+00
 8  1-0.00000000E+00-0.00000000E+00-0.00000000E+00-0.00000000E+00-0.00000000E+00
 8  2-0.00000000E+00-0.00000000E+00-0.00000000E+00-0.00000000E+00-0.00000000E+00
 8  3-7.81174000E-06-0.00000000E+00-0.00000000E+00 5.34489392E-05-0.00000000E+00
 8  4-0.00000000E+00-2.83414957E-04-0.00000000E+00-0.00000000E+00 5.79608453E-04
 8  5-0.00000000E+00-0.00000000E+00-9.16732033E-04-0.00000000E+00-0.00000000E+00
 8  6 1.09606314E-03-0.00000000E+00-0.00000000E+00-1.40074047E-03-0.00000000E+00
 8  7-0.00000000E+00-0.00000000E+00-0.00000000E+00-1.02092012E-05-0.00000000E+00
 8  8-0.00000000E+00-0.00000000E+00-0.00000000E+00-0.00000000E+00 3.03414761E-05
 8  9-0.00000000E+00-0.00000000E+00-0.00000000E+00-0.00000000E+00-0.00000000E+00
 8 10 2.83315868E-06-0.00000000E+00-0.00000000E+00-0.00000000E+00-0.00000000E+00
 8 11-0.00000000E+00-4.03842102E-05-0.00000000E+00-0.00000000E+00-0.00000000E+00
 8 12-0.00000000E+00-0.00000000E+00 6.36162099E-04-0.00000000E+00-0.00000000E+00
 8 13-0.00000000E+00-2.45017830E-06-0.00000000E+00-1.09575305E-06-0.00000000E+00
 8 14-0.00000000E+00-0.00000000E+00-0.00000000E+00 4.38301218E-06-0.00000000E+00
 8 15-0.00000000E+00 1.26270772E-05-0.00000000E+00 5.64700062E-06-0.00000000E+00
 8 16-0.00000000E+00-0.00000000E+00-0.00000000E+00-2.25880025E-05-0.00000000E+00
 8 17-0.00000000E+00-0.00000000E+00-0.00000000E+00 5.84361335E-05-0.00000000E+00
 8 18-9.83722662E-05-0.00000000E+00-0.00000000E+00-0.00000000E+00-0.00000000E+00
 8 19-0.00000000E+00-0.00000000E+00-0.00000000E+00-0.00000000E+00 5.35799445E-05
 8 20-7.07114253E-01 4.77346058E-03-6.64704595E-03 3.25539431E-03-1.20195263E-03
 8 21 2.06716286E-03-0.00000000E+00 4.14395151E-04-6.66775612E-04-0.00000000E+00
 8 22-4.19670996E-05-3.21479695E-05-0.00000000E+00 9.58471713E-06-4.64785105E-05
 8 23 3.68937934E-05 6.05129252E-05-0.00000000E+00-0.00000000E+00-2.69867202E-06
 8 24-1.88595081E-05 2.15581801E-05 2.87864654E-06-0.00000000E+00-0.00000000E+00
 8 25 1.21395044E-05 1.17508784E-05-0.00000000E+00 5.87197418E-06-0.00000000E+00
 8 26-2.89390427E-05-0.00000000E+00 1.26521885E-05-2.16374319E-05-0.00000000E+00
 8 27 7.07114253E-01-4.77346058E-03 6.64704595E-03-3.25539431E-03 1.20195263E-03
 8 28 2.06716286E-03-0.00000000E+00-4.14395151E-04-6.66775612E-04-0.00000000E+00
 8 29 4.19670996E-05-3.21479695E-05-0.00000000E+00-9.58471713E-06 4.64785105E-05
 8 30-3.68937934E-05 6.05129252E-05-0.00000000E+00-0.00000000E+00 2.69867202E-06
 8 31 1.88595081E-05-2.15581801E-05 2.87864654E-06-0.00000000E+00-0.00000000E+00
 8 32-1.21395044E-05 1.17508784E-05-0.00000000E+00 5.87197418E-06-0.00000000E+00
 8 33 2.89390427E-05-0.00000000E+00-1.26521885E-05-2.16374319E-05-0.00000000E+00
 8 34-0.00000000E+00-0.00000000E+00-0.00000000E+00-0.00000000E+00-0.00000000E+00
 8 35-1.46801633E-05-0.00000000E+00-0.00000000E+00 5.09778434E-05-0.00000000E+00
 8 36-0.00000000E+00-1.04837118E-04-0.00000000E+00-0.00000000E+00-0.00000000E+00
 8 37-0.00000000E+00 4.44969760E-06-0.00000000E+00-0.00000000E+00-0.00000000E+00
 8 38-0.00000000E+00-0.00000000E+00-1.32821895E-05-0.00000000E+00-0.00000000E+00
 8 39-0.00000000E+00 5.34890844E-07-0.00000000E+00-9.94432766E-07-0.00000000E+00
 8 40-0.00000000E+00-0.00000000E+00-0.00000000E+00 2.76801392E-07-0.00000000E+00
 9  1 1.51544555E-01-5.42483183E-01 1.12584804E+00 1.40696617E-02-1.76264635E-02
 9  2-3.71437223E-03 2.04308503E-03-4.89430303E-04 1.17456654E-04-0.00000000E+00
 9  3-0.00000000E+00-0.00000000E+00-0.00000000E+00-0.00000000E+00-0.00000000E+00
 9  4-0.00000000E+00-0.00000000E+00-0.00000000E+00-0.00000000E+00-0.00000000E+00
 9  5-0.00000000E+00-0.00000000E+00-0.00000000E+00-0.00000000E+00-0.00000000E+00
 9  6-0.00000000E+00-0.00000000E+00-0.00000000E+00-0.00000000E+00-0.00000000E+00
 9  7 2.62007757E-04 2.62007757E-04-5.24015514E-04-0.00000000E+00-0.00000000E+00
 9  8-0.00000000E+00 1.54878076E-04 1.54878076E-04-3.09756152E-04-0.00000000E+00
 9  9-0.00000000E+00-0.00000000E+00-5.25062189E-05-5.25062189E-05 1.05012438E-04
 9 10-0.00000000E+00-0.00000000E+00-0.00000000E+00 6.40642580E-05 6.40642580E-05
 9 11-1.28128516E-04-0.00000000E+00-0.00000000E+00-0.00000000E+00-1.42806196E-05
 9 12-1.42806196E-05 2.85612393E-05-0.00000000E+00-0.00000000E+00-0.00000000E+00
 9 13 4.63621277E-05-0.00000000E+00-0.00000000E+00-0.00000000E+00-0.00000000E+00
 9 14-6.22013215E-05-0.00000000E+00-0.00000000E+00-0.00000000E+00-0.00000000E+00
 9 15 4.23937938E-05-0.00000000E+00-0.00000000E+00-0.00000000E+00-0.00000000E+00
 9 16-5.68772428E-05-0.00000000E+00-0.00000000E+00-0.00000000E+00-0.00000000E+00
 9 17 5.66278641E-06 5.66278641E-06 1.51007638E-05-0.00000000E+00-0.00000000E+00
 9 18-0.00000000E+00-0.00000000E+00-0.00000000E+00-0.00000000E+00 3.31578820E-06
 9 19-1.32631528E-05-1.32631528E-05-0.00000000E+00-0.00000000E+00-0.00000000E+00
 9 20-7.29977269E-07 7.37802683E-06 9.58305460E-06-5.25742231E-05 2.44137897E-06
 9 21-4.22859242E-06-0.00000000E+00-4.10813633E-06 7.11550085E-06-0.00000000E+00
 9 22-2.94956383E-05 5.10879442E-05-0.00000000E+00-1.12817281E-06 6.55429979E-06
 9 23-5.42612698E-06-7.68247260E-06-0.00000000E+00-0.00000000E+00 4.43098566E-06
 9 24-2.46408645E-05 2.02098788E-05 2.90718501E-05-0.00000000E+00-0.00000000E+00
 9 25 9.52601679E-07 1.29986095E-06-0.00000000E+00 5.81315491E-07-0.00000000E+00
 9 26-2.62053989E-06-0.00000000E+00 1.34249062E-06-2.32526196E-06-0.00000000E+00
 9 27-7.29977269E-07 7.37802683E-06 9.58305460E-06-5.25742231E-05 2.44137897E-06
 9 28 4.22859242E-06-0.00000000E+00-4.10813633E-06-7.11550085E-06-0.00000000E+00
 9 29-2.94956383E-05-5.10879442E-05-0.00000000E+00-1.12817281E-06 6.55429979E-06
 9 30-5.42612698E-06 7.68247260E-06-0.00000000E+00-0.00000000E+00 4.43098566E-06
 9 31-2.46408645E-05 2.02098788E-05-2.90718501E-05-0.00000000E+00-0.00000000E+00
 9 32 9.52601679E-07-1.29986095E-06-0.00000000E+00-5.81315491E-07-0.00000000E+00
 9 33-2.62053989E-06-0.00000000E+00 1.34249062E-06 2.32526196E-06-0.00000000E+00
 9 34-7.29977269E-07 7.37802683E-06 9.58305460E-06-5.25742231E-05-4.88275795E-06
 9 35-0.00000000E+00-0.00000000E+00 8.21627266E-06-0.00000000E+00-0.00000000E+00