!   File created by MacMolPlt 7.7.2
 $CONTRL SCFTYP=RHF RUNTYP=ENERGY MAXIT=30 MULT=1 $END
 $SYSTEM TIMLIM=525600 MEMORY=1000000 $END
 $BASIS GBASIS=MINI $END
 $SCF DIRSCF=.TRUE. $END
 $DATA 
Title
DNH 3

Sb    51.0    -0.00000    -0.00000     0.00000
H     1.0    -0.88500    -1.53287     0.00000
 $END
