 !Step 1: Geometry optimization and Hessian calculation of SbH3 at MP2 level.
 $system kdiag=3 mwords=250 memddi=8000 parall=.t. $end
 $contrl runtyp=optimize ispher=1 relwfn=LUT-IOTC $end
 $scf    npunch=2 conv=1.0d-06 dirscf=.t.      $end
 $contrl scftyp=rhf  mult=1 maxit=200 icharg=0 mplevl=2 $end
 $basis  gbasis=SPKrTZC $end
 $statpt hssend=.t. nstep=200 $end
 $force  method=seminum $end
 $trans  dirtrf=.t. $end
 $data
 SbH3 MP2 Geometry Opt and Hessian
DNH 3

Sb    51.0    -0.00000000    -0.00000000     0.00000000
H     1.0     1.77000022     0.00000000     0.00000000
 $end
    
