 !#############################################################################
 !                   D_3h RHF GEOMETRY OPTIMIZATION AND HESSIAN TEMPLATE
 ! ---------------------------------------------------------------------------
 ! Replace the symmetry-correct coordinates, should only be two atoms.  
 ! The hydrogen or fluorine should have only one non-zero x,y,z coordinate.
 ! 
 ! Basis set?   gbasis=ccd for 2nd row, 
 !                         cct 3rd/4th,
 !                   SPKrTZP for heavy,
 !                   SPKrTZC beyond 4th
 ! 
 !#############################################################################
 $system kdiag=3 mwords=500 memddi=3000 parall=.t. $end
 $contrl runtyp=energy ispher=1 $end
 $contrl icut=9 itol=20 inttyp=rysquad qmttol=1.0d-05 nosym=1 $end
 $contrl scftyp=mcscf  mult=5 maxit=200 icharg=0 mplevl=2 $end
 $scf    npunch=2 conv=1.0d-06 dirscf=.t. $end
 $force  method=seminum $end
 $trans  dirtrf=.t. $end
 $statpt hssend=.t. $end
 $basis  gbasis=SPKrTZP $end
 !#############################################################################
 !
 !                       TURN ON THIS SECTION IF HEAVY ATOM
 !
 !#############################################################################
 !
 $contrl relwfn=LUT-IOTC $end
 $scf  diis=.t. soscf=.f. ethrsh=10.0 $end
 -guess iorder(25)=27,25,26 $end
 -gmcpt nsolut=100 $end
 !
 !#############################################################################
 !
 ! TURN ON THIS SECTION IF GMCPT, CHANGE runtyp=energy, scftyp=mcscf, change nosym=1
 !
 !#############################################################################
 $guess   guess=moread norb=168 purify=.t. norder=1 $end
 $mcscf   cistep=gmcci fullnr=.t. finci=mos
          acurcy=1.d-5 maxit=200 $end
 $mrmp    mrpt=gmcpt rdvecs=.f. $end
 $gmcpt   nmofzc=21 nmodoc=12 nmoact=5 nelact=6 stsym(1)=A
          reftyp=ormas nspace=1 mstart(1)=34 mine(1)=6 maxe(1)=6
          kstate(1)=1,1,1,1,1,1,1,1,1,1,1,1,1,1,1
          wstate(1)=1,1,1,1,1,1,1,1,1,1,1,1,1,1,1
          iwgt=0 thrwgt=-1.0 krot=.f. kszdoe=.f. knospn=.t.
          thrde=-1.0 edshft=0.02 $end
 $transt $end
 !#############################################################################
 !
 ! IF temp.inp, TURN OFF $data SECTION here, add $data title C1 AT END OF FILE
 !
 !    IF SOC, $transt $end, turn knospn=.t., restart from gmcpt states calc
 !
 !#############################################################################
Semi-canonical MOs --- generated at Fri Jul 12 21:22:49 2024
 $VEC   
 1  1 9.95688317E-01 1.09627312E-02-1.14679350E-02-1.18674703E-02 1.44354886E-02
 1  2 8.86700269E-03-5.22678662E-03 1.12219189E-03-2.66857166E-04 0.00000000E+00
 1  3 0.00000000E+00 0.00000000E+00 0.00000000E+00 0.00000000E+00 0.00000000E+00
 1  4 0.00000000E+00 0.00000000E+00 0.00000000E+00 3.54906950E-11 0.00000000E+00
 1  5 0.00000000E+00-1.90822420E-11 0.00000000E+00 0.00000000E+00-1.50113204E-10
 1  6 0.00000000E+00 0.00000000E+00-5.10460226E-10 0.00000000E+00 0.00000000E+00
 1  7 2.14868038E-06 2.14870806E-06-4.29738844E-06 0.00000000E+00 0.00000000E+00
 1  8 0.00000000E+00-9.81148321E-06-9.81150675E-06 1.96229900E-05 0.00000000E+00
 1  9 0.00000000E+00 0.00000000E+00 4.39526531E-05 4.39526103E-05-8.79052635E-05
 1 10 0.00000000E+00 0.00000000E+00 0.00000000E+00-1.51404887E-04-1.51404462E-04
 1 11 3.02809349E-04 0.00000000E+00 0.00000000E+00 0.00000000E+00 2.63552255E-05
 1 12 2.63553813E-05-5.27106068E-05 0.00000000E+00 0.00000000E+00 0.00000000E+00
 1 13 4.64995482E-05 0.00000000E+00 0.00000000E+00 0.00000000E+00 0.00000000E+00
 1 14-6.23856432E-05 0.00000000E+00-4.92867922E-11 0.00000000E+00 0.00000000E+00
 1 15-1.75208103E-04 0.00000000E+00 0.00000000E+00 0.00000000E+00 0.00000000E+00
 1 16 2.35066216E-04 0.00000000E+00 1.17840975E-10 0.00000000E+00 0.00000000E+00
 1 17-1.23750296E-05-1.23750497E-05-3.30002560E-05 0.00000000E+00 0.00000000E+00
 1 18 0.00000000E+00 0.00000000E+00 0.00000000E+00 0.00000000E+00-7.24621324E-06
 1 19 2.89844394E-05 2.89844746E-05 0.00000000E+00 0.00000000E+00 0.00000000E+00
 1 20-6.35889768E-06-4.60511779E-05 7.79605552E-05 1.54243647E-04-8.90320861E-06
 1 21 1.54207003E-05 0.00000000E+00 3.51739924E-05-6.09233269E-05 0.00000000E+00
 1 22 9.03290835E-05-1.56454253E-04 0.00000000E+00 1.60420643E-06-6.37106240E-06
 1 23 4.76685597E-06 7.97532070E-06 0.00000000E+00 0.00000000E+00-1.04891552E-05
 1 24 4.93744458E-05-3.88852906E-05-5.98636617E-05 0.00000000E+00 0.00000000E+00
 1 25 7.51983120E-06 6.84427860E-06 0.00000000E+00 3.06098024E-06 0.00000000E+00
 1 26-1.71577809E-05 0.00000000E+00 7.06886862E-06-1.22435436E-05 0.00000000E+00
 1 27-6.35889530E-06-4.60511799E-05 7.79605303E-05 1.54243687E-04-8.90321035E-06
 1 28-1.54207026E-05 0.00000000E+00 3.51739895E-05 6.09233221E-05 0.00000000E+00
 1 29 9.03290913E-05 1.56454267E-04 0.00000000E+00 1.60420620E-06-6.37106285E-06
 1 30 4.76685665E-06-7.97532285E-06 0.00000000E+00 0.00000000E+00-1.04891563E-05
 1 31 4.93744493E-05-3.88852930E-05 5.98636646E-05 0.00000000E+00 0.00000000E+00
 1 32 7.51982886E-06-6.84428133E-06 0.00000000E+00-3.06097688E-06 0.00000000E+00
 1 33-1.71577770E-05 0.00000000E+00 7.06886785E-06 1.22435439E-05 0.00000000E+00
 1 34-6.35888120E-06-4.60510847E-05 7.79601364E-05 1.54244630E-04 1.78065320E-05
 1 35 0.00000000E+00 0.00000000E+00-7.03479888E-05 0.00000000E+00 0.00000000E+00
 1 36-1.80658686E-04 0.00000000E+00 0.00000000E+00-1.03590464E-05 5.59198168E-06
 1 37 4.76706470E-06 0.00000000E+00 0.00000000E+00 0.00000000E+00 7.93066026E-05
 1 38-4.04212474E-05-3.88853552E-05 0.00000000E+00 0.00000000E+00 0.00000000E+00
 1 39 1.93745011E-05 0.00000000E+00 0.00000000E+00 0.00000000E+00 0.00000000E+00
 1 40-1.18561614E-05 0.00000000E+00-1.41374595E-05 0.00000000E+00 0.00000000E+00
 2  1-3.51688064E-01 1.04693108E+00 2.82967026E-02 1.44079596E-04-9.38274211E-03
 2  2 4.09912093E-03-3.24146023E-03 5.99969204E-04-1.67487448E-04 4.15627353E-10
 2  3-2.96396821E-11 0.00000000E+00 4.33268171E-11 0.00000000E+00 0.00000000E+00
 2  4-4.86453714E-11-2.43639566E-11 0.00000000E+00 0.00000000E+00 4.61695909E-11
 2  5 0.00000000E+00 4.23495092E-11-5.67130859E-11 0.00000000E+00-8.07611776E-11
 2  6 4.09763316E-11 0.00000000E+00 0.00000000E+00 1.63723935E-10 0.00000000E+00
 2  7-1.85271228E-06-1.85271282E-06 3.70542510E-06 0.00000000E+00 0.00000000E+00
 2  8 0.00000000E+00-2.82224827E-06-2.82172768E-06 5.64397595E-06 0.00000000E+00
 2  9 0.00000000E+00 0.00000000E+00 3.52136323E-05 3.52135583E-05-7.04271907E-05
 2 10 0.00000000E+00 0.00000000E+00 0.00000000E+00-1.46150234E-04-1.46150076E-04
 2 11 2.92300310E-04-1.00970321E-10 0.00000000E+00 0.00000000E+00 1.97911376E-05
 2 12 1.97910916E-05-3.95822292E-05-2.84017397E-11 0.00000000E+00 0.00000000E+00
 2 13 4.37079798E-05 0.00000000E+00 0.00000000E+00 0.00000000E+00 0.00000000E+00
 2 14-5.86403512E-05 0.00000000E+00-6.61753868E-11 0.00000000E+00 0.00000000E+00
 2 15-1.79748466E-04 1.07874774E-11 0.00000000E+00 0.00000000E+00 0.00000000E+00
 2 16 2.41157823E-04 0.00000000E+00 4.98447697E-11-1.93149645E-11 0.00000000E+00
 2 17-1.29268854E-05-1.29268770E-05-3.44716248E-05 0.00000000E+00 0.00000000E+00
 2 18 0.00000000E+00 0.00000000E+00 0.00000000E+00 0.00000000E+00-7.56915533E-06
 2 19 3.02767824E-05 3.02767677E-05 0.00000000E+00 0.00000000E+00 0.00000000E+00
 2 20-5.79415400E-06-4.98998891E-05 5.96781405E-05 1.89444770E-04-1.02748239E-05
 2 21 1.77966056E-05 0.00000000E+00 3.07678901E-05-5.32916778E-05 0.00000000E+00
 2 22 9.46644106E-05-1.63963616E-04 0.00000000E+00 2.59345904E-06-1.17340204E-05
 2 23 9.14056139E-06 1.43273569E-05 0.00000000E+00 0.00000000E+00-1.26497771E-05
 2 24 6.10082863E-05-4.83585092E-05-7.36579951E-05 0.00000000E+00 0.00000000E+00
 2 25-8.21274279E-07 7.79859559E-07 0.00000000E+00 3.48757251E-07 0.00000000E+00
 2 26 2.96416723E-07 0.00000000E+00 8.05438346E-07-1.39504864E-06 0.00000000E+00
 2 27-5.79414902E-06-4.98998567E-05 5.96779759E-05 1.89445163E-04-1.02748210E-05
 2 28-1.77966034E-05 0.00000000E+00 3.07678816E-05 5.32916673E-05 0.00000000E+00
 2 29 9.46644964E-05 1.63963778E-04 0.00000000E+00 2.59346309E-06-1.17340306E-05
 2 30 9.14056754E-06-1.43273712E-05 0.00000000E+00 0.00000000E+00-1.26497882E-05
 2 31 6.10083211E-05-4.83585330E-05 7.36580364E-05 0.00000000E+00 0.00000000E+00
 2 32-8.21262670E-07-7.79874792E-07 0.00000000E+00-3.48755319E-07 0.00000000E+00
 2 33 2.96401801E-07 0.00000000E+00 8.05437694E-07 1.39506715E-06 0.00000000E+00
 2 34-5.79415841E-06-4.98998187E-05 5.96780753E-05 1.89444965E-04 2.05497173E-05
 2 35 0.00000000E+00 0.00000000E+00-6.15358946E-05 0.00000000E+00 0.00000000E+00
 2 36-1.89329127E-04 0.00000000E+00 0.00000000E+00-1.88976751E-05 9.75709304E-06
 2 37 9.14058210E-06 0.00000000E+00 0.00000000E+00 0.00000000E+00 9.78373137E-05
 2 38-4.94788493E-05-4.83584644E-05 0.00000000E+00 0.00000000E+00 0.00000000E+00
 2 39 5.29448017E-07 0.00000000E+00 0.00000000E+00 0.00000000E+00 0.00000000E+00
 2 40 9.00504182E-07 0.00000000E+00-1.61083324E-06 0.00000000E+00 0.00000000E+00
 3  1-0.00000000E+00 2.67053185E-11 1.05134741E-11-0.00000000E+00-0.00000000E+00
 3  2 1.54291184E-11-0.00000000E+00-0.00000000E+00-0.00000000E+00-2.53612330E-03
 3  3 9.93414637E-01-0.00000000E+00-3.37400189E-05 1.32161504E-02-0.00000000E+00
 3  4-1.15983327E-05 4.54314789E-03-0.00000000E+00 1.19898155E-05-4.69646487E-03
 3  5-0.00000000E+00-6.93754080E-06 2.71745387E-03-0.00000000E+00 4.02753741E-06
 3  6-1.57760318E-03-0.00000000E+00-3.62528132E-07 1.42006011E-04-0.00000000E+00
 3  7-0.00000000E+00-0.00000000E+00-0.00000000E+00-7.20425075E-09-0.00000000E+00
 3  8-0.00000000E+00 2.23252159E-08-2.23256219E-08-0.00000000E+00 1.01186929E-05
 3  9-0.00000000E+00-0.00000000E+00-1.90505816E-07 1.90505720E-07-0.00000000E+00
 3 10-8.61828621E-05-0.00000000E+00-0.00000000E+00 7.42711248E-07-7.42711440E-07
 3 11-0.00000000E+00 3.35918843E-04-0.00000000E+00-0.00000000E+00-1.20240501E-07
 3 12 1.20240512E-07-0.00000000E+00-5.43869114E-05-0.00000000E+00-0.00000000E+00
 3 13-4.57505493E-08 1.79073179E-05-0.00000000E+00 8.00844004E-06-0.00000000E+00
 3 14-2.03788696E-08-0.00000000E+00 8.17596726E-08-3.20336281E-05-0.00000000E+00
 3 15 1.78782845E-07-7.00136922E-05-0.00000000E+00-3.13115295E-05-0.00000000E+00
 3 16 7.99075303E-08-0.00000000E+00-3.19769887E-07 1.25244755E-04-0.00000000E+00
 3 17 1.34203472E-07 4.26109097E-08 1.00959760E-11-3.87946943E-05-0.00000000E+00
 3 18 6.59204509E-05-0.00000000E+00-0.00000000E+00-0.00000000E+00-1.55288718E-07
 3 19-8.04558027E-08 8.04375359E-08-0.00000000E+00-0.00000000E+00-3.63930214E-05
 3 20-7.67080194E-06-6.56666402E-05 9.31046418E-05 1.84540503E-04-1.04915774E-05
 3 21 1.76425642E-05-0.00000000E+00 3.00513552E-05-5.04962642E-05-0.00000000E+00
 3 22 1.11252975E-04-1.98999350E-04-0.00000000E+00 9.45925804E-07-1.00090581E-05
 3 23 9.06313231E-06 1.39924925E-05-0.00000000E+00-0.00000000E+00-9.29838724E-06
 3 24 6.24606457E-05-5.31622584E-05-8.15776876E-05-0.00000000E+00-0.00000000E+00
 3 25 2.93806244E-06 5.55901174E-06-0.00000000E+00-4.93598668E-06-0.00000000E+00
 3 26-3.35091071E-06-0.00000000E+00-5.90913694E-07-2.52221020E-06-0.00000000E+00
 3 27 7.64821876E-06 6.54733615E-05-9.28305683E-05-1.83997325E-04 1.04634256E-05
 3 28 1.75890811E-05-0.00000000E+00-2.99708413E-05-5.03430272E-05-0.00000000E+00
 3 29-1.10893220E-04-1.98432236E-04-0.00000000E+00-9.29673483E-07 9.96612022E-06
 3 30-9.03644674E-06 1.39602888E-05-0.00000000E+00-0.00000000E+00 9.22747432E-06
 3 31-6.22332382E-05 5.30057639E-05-8.13665913E-05-0.00000000E+00-0.00000000E+00
 3 32-2.93957817E-06 5.59757998E-06-0.00000000E+00-4.98466325E-06-0.00000000E+00
 3 33 3.33651082E-06-0.00000000E+00 6.07347149E-07-2.52527836E-06-0.00000000E+00
 3 34 2.25786313E-08 1.93305028E-07-2.74062410E-07-5.43236212E-07-6.04189728E-08
 3 35-5.31895800E-07-0.00000000E+00 1.72949117E-07 1.56130393E-06-0.00000000E+00
 3 36 6.71050768E-07-6.33144112E-06-0.00000000E+00 5.22918285E-08-2.56122314E-08
 3 37-2.66795971E-08 3.05127276E-06-0.00000000E+00-0.00000000E+00-3.11158511E-07
 3 38 1.54662289E-07 1.56496222E-07-9.86281228E-06-0.00000000E+00-0.00000000E+00
 3 39-1.07788259E-08-6.34397351E-06-0.00000000E+00 1.20729600E-05-0.00000000E+00
 3 40 8.90234757E-09-0.00000000E+00 5.55896489E-09-3.56162643E-06-0.00000000E+00
 4  1 1.45506607E-10-3.83820371E-10 6.89121388E-11 3.79797854E-10-2.39497039E-10
 4  2-7.78652912E-11-2.25779087E-10 7.00382264E-10-1.27249324E-10 9.93414637E-01
 4  3 2.53612332E-03-0.00000000E+00 1.32161504E-02 3.37399367E-05-0.00000000E+00
 4  4 4.54314784E-03 1.15983912E-05-0.00000000E+00-4.69646464E-03-1.19897242E-05
 4  5-0.00000000E+00 2.71745375E-03 6.93742249E-06-0.00000000E+00-1.57760327E-03
 4  6-4.02749741E-06-0.00000000E+00 1.42005826E-04 3.62537045E-07-0.00000000E+00
 4  7 6.25959262E-09-6.26632449E-09-0.00000000E+00-3.70700920E-11-0.00000000E+00
 4  8-0.00000000E+00-8.76309000E-06 8.76315873E-06-6.62505289E-11 2.58834291E-08
 4  9-0.00000000E+00-0.00000000E+00 7.46368327E-05-7.46368780E-05 4.38929967E-11
 4 10-2.20072166E-07-0.00000000E+00-0.00000000E+00-2.90914242E-04 2.90914354E-04
 4 11-1.11906515E-10 8.57579072E-07-0.00000000E+00-0.00000000E+00 4.71005250E-05
 4 12-4.71004556E-05-7.19241584E-11-1.38848355E-07-0.00000000E+00-0.00000000E+00
 4 13 1.79073865E-05 4.56821634E-08-0.00000000E+00 2.05110041E-08-0.00000000E+00
 4 14 8.00841106E-06-0.00000000E+00-3.20336912E-05-8.18000577E-08-0.00000000E+00
 4 15-7.00135640E-05-1.78709242E-07-0.00000000E+00-7.99494656E-08-0.00000000E+00
 4 16-3.13117478E-05-0.00000000E+00 1.25244801E-04 3.19713074E-07-0.00000000E+00
 4 17-5.25732825E-05-1.66892752E-05-0.00000000E+00-9.90467846E-08-0.00000000E+00
 4 18 1.68308765E-07-0.00000000E+00-0.00000000E+00-0.00000000E+00 6.08339931E-05
 4 19 3.15172933E-05-3.15172762E-05-0.00000000E+00-0.00000000E+00-9.29246974E-08
 4 20 4.40263817E-06 3.76895743E-05-5.34372996E-05-1.05917969E-04 5.49067182E-06
 4 21-1.04326090E-05-0.00000000E+00-1.56889722E-05 2.98824456E-05-0.00000000E+00
 4 22-7.01761555E-05 1.10566029E-04-0.00000000E+00-3.18149323E-06 8.38319937E-06
 4 23-5.20170614E-06-6.27205200E-06-0.00000000E+00-0.00000000E+00 1.38655511E-05
 4 24-4.43782215E-05 3.05126703E-05 4.11360325E-05-0.00000000E+00-0.00000000E+00
 4 25 3.01803959E-07 7.56746173E-06-0.00000000E+00-9.54724569E-06-0.00000000E+00
 4 26 2.81228019E-06-0.00000000E+00-3.21719269E-06-6.05569616E-07-0.00000000E+00
 4 27 4.44174685E-06 3.80243533E-05-5.39119741E-05-1.06858795E-04 5.54420770E-06
 4 28 1.05225352E-05-0.00000000E+00-1.58422595E-05-3.01398534E-05-0.00000000E+00
 4 29-7.07432416E-05-1.11580643E-04-0.00000000E+00-3.18628912E-06 8.43419524E-06
 4 30-5.24790613E-06 6.34341222E-06-0.00000000E+00-0.00000000E+00 1.39128575E-05
 4 31-4.46965497E-05 3.07836922E-05-4.15520030E-05-0.00000000E+00-0.00000000E+00
 4 32 2.86794851E-07-7.53898438E-06-0.00000000E+00 9.52192241E-06-0.00000000E+00
 4 33 2.82936560E-06-0.00000000E+00-3.21414127E-06 5.92686526E-07-0.00000000E+00
 4 34-8.84444673E-06-7.57136374E-05 1.07349811E-04 2.12775073E-04 2.36650103E-05
 4 35-1.33333317E-09-0.00000000E+00-6.77465391E-05 3.96024857E-09-0.00000000E+00
 4 36-2.62843734E-04-1.61507059E-08-0.00000000E+00-2.04826689E-05 1.00327880E-05
 4 37 1.04498809E-05 7.79117682E-09-0.00000000E+00-0.00000000E+00 1.21876856E-04
 4 38-6.05807673E-05-6.12960889E-05-2.51827455E-08-0.00000000E+00-0.00000000E+00
 4 39 4.22419984E-06-1.62056950E-08-0.00000000E+00 3.08238918E-08-0.00000000E+00
 4 40-3.48957011E-06-0.00000000E+00-2.17778869E-06-9.08167043E-09-0.00000000E+00
 5  1 0.00000000E+00 0.00000000E+00 0.00000000E+00 0.00000000E+00 0.00000000E+00
 5  2 0.00000000E+00 0.00000000E+00 0.00000000E+00 0.00000000E+00 0.00000000E+00
 5  3 0.00000000E+00 9.93405755E-01 0.00000000E+00 0.00000000E+00 1.32676890E-02
 5  4 0.00000000E+00 0.00000000E+00 4.37325801E-03 0.00000000E+00 0.00000000E+00
 5  5-4.38894013E-03 0.00000000E+00 0.00000000E+00 2.25610213E-03 0.00000000E+00
 5  6 0.00000000E+00-1.09548712E-03 0.00000000E+00 0.00000000E+00 2.94604949E-04
 5  7 0.00000000E+00 0.00000000E+00 0.00000000E+00 0.00000000E+00 0.00000000E+00
 5  8 0.00000000E+00 0.00000000E+00 0.00000000E+00 0.00000000E+00 0.00000000E+00
 5  9 0.00000000E+00 0.00000000E+00 0.00000000E+00 0.00000000E+00 0.00000000E+00
 5 10 0.00000000E+00 3.16886331E-11 0.00000000E+00 0.00000000E+00 0.00000000E+00
 5 11 0.00000000E+00 0.00000000E+00 0.00000000E+00 0.00000000E+00 0.00000000E+00
 5 12 0.00000000E+00 0.00000000E+00 0.00000000E+00 0.00000000E+00 0.00000000E+00
 5 13 0.00000000E+00 0.00000000E+00-2.37127279E-06 0.00000000E+00 1.59069365E-06
 5 14 0.00000000E+00 1.59070264E-06 0.00000000E+00 0.00000000E+00 0.00000000E+00
 5 15 0.00000000E+00 0.00000000E+00 1.22691962E-05 0.00000000E+00-8.23044289E-06
 5 16 0.00000000E+00-8.23041117E-06 0.00000000E+00 0.00000000E+00 0.00000000E+00
 5 17 0.00000000E+00 0.00000000E+00 0.00000000E+00 0.00000000E+00-7.23170534E-06
 5 18 0.00000000E+00 0.00000000E+00-3.45966504E-11 0.00000000E+00 0.00000000E+00
 5 19 0.00000000E+00 0.00000000E+00 0.00000000E+00 9.70239337E-06 0.00000000E+00
 5 20 0.00000000E+00 0.00000000E+00 0.00000000E+00 0.00000000E+00 0.00000000E+00
 5 21 0.00000000E+00-4.49729330E-06 0.00000000E+00 0.00000000E+00 1.16269901E-05
 5 22 0.00000000E+00 0.00000000E+00-1.08408747E-05 0.00000000E+00 0.00000000E+00
 5 23 0.00000000E+00 0.00000000E+00-3.62878292E-06 6.28518518E-06 0.00000000E+00
 5 24 0.00000000E+00 0.00000000E+00 0.00000000E+00 1.16456898E-05-2.01708983E-05
 5 25 0.00000000E+00 0.00000000E+00-6.32189675E-06 0.00000000E+00 7.22617890E-07
 5 26 0.00000000E+00 7.75909664E-06 0.00000000E+00 0.00000000E+00-7.03647419E-06
 5 27 0.00000000E+00 0.00000000E+00 0.00000000E+00 0.00000000E+00 0.00000000E+00
 5 28 0.00000000E+00-4.49728602E-06 0.00000000E+00 0.00000000E+00 1.16269816E-05
 5 29 0.00000000E+00 0.00000000E+00-1.08408705E-05 0.00000000E+00 0.00000000E+00
 5 30 0.00000000E+00 0.00000000E+00-3.62878267E-06-6.28518512E-06 0.00000000E+00
 5 31 0.00000000E+00 0.00000000E+00 0.00000000E+00 1.16456895E-05 2.01708982E-05
 5 32 0.00000000E+00 0.00000000E+00-6.32188677E-06 0.00000000E+00 7.22598811E-07
 5 33 0.00000000E+00 7.75910232E-06 0.00000000E+00 0.00000000E+00 7.03647421E-06
 5 34 0.00000000E+00 0.00000000E+00 0.00000000E+00 0.00000000E+00 0.00000000E+00
 5 35 0.00000000E+00-4.49725839E-06 0.00000000E+00 0.00000000E+00 1.16269645E-05
 5 36 0.00000000E+00 0.00000000E+00-1.08408843E-05 0.00000000E+00 0.00000000E+00
 5 37 0.00000000E+00 0.00000000E+00 7.25747115E-06 0.00000000E+00 0.00000000E+00
 5 38 0.00000000E+00 0.00000000E+00 0.00000000E+00-2.32913099E-05 0.00000000E+00
 5 39 0.00000000E+00 0.00000000E+00-6.32185362E-06 0.00000000E+00 1.12772435E-05
 5 40 0.00000000E+00-2.79558688E-06 0.00000000E+00 0.00000000E+00 0.00000000E+00
 6  1 3.04792511E-07 4.05796237E-07 6.72910689E-06 4.83769904E-06-1.07616656E-05
 6  2 7.63018847E-06-1.29423470E-05-1.42873546E-05 1.47554173E-05 9.39729789E-07
 6  3-2.41643411E-06-0.00000000E+00-2.50610376E-06 6.44420950E-06-0.00000000E+00
 6  4-6.79140710E-06 1.74636353E-05-0.00000000E+00 2.49454686E-05-6.41453842E-05
 6  5-0.00000000E+00-4.54157768E-05 1.16783327E-04-0.00000000E+00 7.20801656E-05
 6  6-1.85348472E-04-0.00000000E+00-4.01144498E-05 1.03151032E-04-0.00000000E+00
 6  7 6.47787994E-06-8.28704911E-06 1.80916895E-06 2.19200751E-05-0.00000000E+00
 6  8-0.00000000E+00-1.34654657E-05 1.70572512E-05-3.59178622E-06-4.53140788E-05
 6  9-0.00000000E+00-0.00000000E+00 4.23573246E-06-3.95588840E-06-2.79843946E-07
 6 10 1.21614840E-05-0.00000000E+00-0.00000000E+00 4.72087323E-06-1.24377862E-05
 6 11 7.71691202E-06 2.54732982E-05-0.00000000E+00-0.00000000E+00-1.79484202E-05
 6 12 2.29151303E-05-4.96671168E-06-6.06662435E-05-0.00000000E+00-0.00000000E+00
 6 13 4.64653342E-07 1.06707434E-06-0.00000000E+00 4.76919919E-07-0.00000000E+00
 6 14-1.36554951E-06-0.00000000E+00 7.42151604E-07-1.90855037E-06-0.00000000E+00
 6 15-1.35071674E-06-1.03594247E-05-0.00000000E+00-4.63277525E-06-0.00000000E+00
 6 16 9.01881976E-06-0.00000000E+00-7.20664322E-06 1.85314019E-05-0.00000000E+00
 6 17 3.48075681E-06 9.67658075E-07-9.98102129E-07-7.65912367E-06-0.00000000E+00
 6 18 1.25441574E-05-0.00000000E+00-0.00000000E+00-0.00000000E+00-4.78373081E-06
 6 19-1.33063668E-06 3.08392316E-06-0.00000000E+00-0.00000000E+00-6.55396050E-06
 6 20 8.63220030E-01 7.07435281E-03 9.70475128E-04-2.41714416E-04 2.79206968E-04
 6 21-4.82110515E-04-0.00000000E+00-1.06641223E-04 1.83415388E-04-0.00000000E+00
 6 22 7.69430857E-05-1.27759299E-04-0.00000000E+00 2.13503758E-06-1.43513595E-05
 6 23 1.22163219E-05 1.64261896E-05-0.00000000E+00-0.00000000E+00-4.22750500E-06
 6 24 2.67264492E-05-2.24989442E-05-3.07940597E-05-0.00000000E+00-0.00000000E+00
 6 25-7.81947930E-06-6.19639743E-06-0.00000000E+00-2.92698082E-06-0.00000000E+00
 6 26 1.70358701E-05-0.00000000E+00-6.54493772E-06 1.12403203E-05-0.00000000E+00
 6 27-4.43853602E-01-3.63891846E-03-4.96003868E-04 1.29593767E-04-1.46384604E-04
 6 28-2.45903595E-04-0.00000000E+00 5.73500594E-05 9.27048766E-05-0.00000000E+00
 6 29-4.76577092E-05-5.42964058E-05-0.00000000E+00-1.02811880E-06 7.45934325E-06
 6 30-6.43122445E-06 8.18537461E-06-0.00000000E+00-0.00000000E+00 1.96569646E-06
 6 31-1.37496991E-05 1.17840027E-05-1.48950815E-05-0.00000000E+00-0.00000000E+00
 6 32 3.82979247E-06-2.80236472E-06-0.00000000E+00-2.05282162E-06-0.00000000E+00
 6 33-8.77801314E-06-0.00000000E+00 3.63980735E-06 5.81258843E-06-0.00000000E+00
 6 34-2.30525322E-01-1.89039881E-03-2.56659245E-04 6.89923802E-05 1.48519749E-04
 6 35 4.56616011E-06-0.00000000E+00-5.65491330E-05-3.96046032E-06-0.00000000E+00
 6 36 3.49502171E-05 1.68792938E-05-0.00000000E+00 5.92315531E-06-2.53539154E-06
 6 37-3.38776377E-06-1.79182249E-07-0.00000000E+00-0.00000000E+00-1.06975073E-05
 6 38 4.50903297E-06 6.18847433E-06 4.89700772E-07-0.00000000E+00-0.00000000E+00
 6 39 5.05335221E-06-3.69957079E-07-0.00000000E+00 7.90322880E-07-0.00000000E+00
 6 40-3.16746714E-06-0.00000000E+00-3.61231630E-06-2.93973373E-07-0.00000000E+00
 7  1-2.20656203E-07-2.93718736E-07-4.87141511E-06-3.50186257E-06 7.79057519E-06
 7  2-5.52364159E-06 9.36954384E-06 1.03421097E-05-1.06817969E-05-2.41508157E-06
 7  3-9.63567783E-07-0.00000000E+00 6.44063603E-06 2.56968265E-06-0.00000000E+00
 7  4 1.74535496E-05 6.96352944E-06-0.00000000E+00-6.41087523E-05-2.55778511E-05
 7  5-0.00000000E+00 1.16716435E-04 4.65668966E-05-0.00000000E+00-1.85242438E-04
 7  6-7.39065796E-05-0.00000000E+00 1.03092151E-04 4.11308391E-05-0.00000000E+00
 7  7-1.83178217E-05 1.96273554E-05-1.30953326E-06 8.74049882E-06-0.00000000E+00
 7  8-0.00000000E+00 3.79209928E-05-4.05208895E-05 2.59989853E-06-1.80686989E-05
 7  9-0.00000000E+00-0.00000000E+00-1.06270054E-05 1.04248745E-05 2.02130564E-07
 7 10 4.84925697E-06-0.00000000E+00-0.00000000E+00-1.92551405E-05 2.48415901E-05
 7 11-5.58644718E-06 1.01573061E-05-0.00000000E+00-0.00000000E+00 5.07109027E-05
 7 12-5.43065408E-05 3.59564220E-06-2.41903043E-05-0.00000000E+00-0.00000000E+00
 7 13 4.29621676E-07 4.25240464E-07-0.00000000E+00 1.90649183E-07-0.00000000E+00
 7 14 1.33106545E-06-0.00000000E+00-1.90746339E-06-7.61169133E-07-0.00000000E+00
 7 15-6.45933928E-06-4.13075863E-06-0.00000000E+00-1.84723866E-06-0.00000000E+00
 7 16-9.85457413E-06-0.00000000E+00 1.85206872E-05 7.38923292E-06-0.00000000E+00
 7 17-9.63617778E-06-3.17769089E-06 7.22659675E-07-3.05399519E-06-0.00000000E+00
 7 18 5.00185960E-06-0.00000000E+00-0.00000000E+00-0.00000000E+00 1.18892700E-05
 7 19 5.03783392E-06-6.30727417E-06-0.00000000E+00-0.00000000E+00-2.61333433E-06
 7 20-1.62081625E-01-1.32781217E-03-1.83282171E-04 4.35058857E-05-4.81478079E-05
 7 21 9.31202960E-05-0.00000000E+00 1.62886966E-05-3.66486328E-05-0.00000000E+00
 7 22 5.37075026E-07 3.50197715E-05-0.00000000E+00-3.13757623E-07 2.55447500E-06
 7 23-2.24071737E-06-3.25116438E-06-0.00000000E+00-0.00000000E+00 5.62762644E-07
 7 24-4.71081545E-06 4.14805281E-06 6.31754600E-06-0.00000000E+00-0.00000000E+00
 7 25 1.65374841E-06 1.81025831E-06-0.00000000E+00-2.08079612E-07-0.00000000E+00
 7 26-3.13945911E-06-0.00000000E+00 9.20722793E-07-2.22063676E-06-0.00000000E+00
 7 27-6.83269074E-01-5.59966224E-03-7.68031702E-04 1.91562665E-04-2.17849842E-04
 7 28-3.83411546E-04-0.00000000E+00 8.16791887E-05 1.46750125E-04-0.00000000E+00
 7 29-4.91467447E-05-1.07613268E-04-0.00000000E+00-1.57510090E-06 1.12514952E-05
 7 30-9.67639427E-06 1.30649634E-05-0.00000000E+00-0.00000000E+00 3.03222419E-06
 7 31-2.08503133E-05 1.78180891E-05-2.45357238E-05-0.00000000E+00-0.00000000E+00
 7 32 6.29883035E-06-5.39847118E-06-0.00000000E+00-1.77758070E-06-0.00000000E+00
 7 33-1.34325966E-05-0.00000000E+00 4.98182887E-06 9.02038982E-06-0.00000000E+00
 7 34 7.08639329E-01 5.80894658E-03 7.93629613E-04-2.03845032E-04-4.57038206E-04
 7 35 1.82087688E-06-0.00000000E+00 1.74036696E-04-1.57933672E-06-0.00000000E+00
 7 36-1.16472538E-04 6.73052975E-06-0.00000000E+00-1.83913150E-05 8.20954219E-06
 7 37 1.01817728E-05-7.02882967E-08-0.00000000E+00-0.00000000E+00 3.38876804E-05
 7 38-1.51982961E-05-1.86893844E-05 1.95890182E-07-0.00000000E+00-0.00000000E+00
 7 39-1.54482754E-05-1.47968715E-07-0.00000000E+00 3.16097897E-07-0.00000000E+00
 7 40 9.87907853E-06-0.00000000E+00 1.08469578E-05-1.17577034E-07-0.00000000E+00
 8  1 2.76346589E-06 3.67954031E-06 6.10116748E-05 4.38646291E-05-9.75742820E-05
 8  2 6.91771594E-05-1.17339260E-04-1.29545961E-04 1.33785749E-04-2.96508160E-07
 8  3 1.89372150E-07 0.00000000E+00 7.90778136E-07-5.04911286E-07 0.00000000E+00
 8  4 2.14234962E-06-1.36998509E-06 0.00000000E+00-7.86991291E-06 5.03032782E-06
 8  5 0.00000000E+00 1.43285473E-05-9.15955400E-06 0.00000000E+00-2.27411507E-05
 8  6 1.45402501E-05 0.00000000E+00 1.26557862E-05-8.09258623E-06 0.00000000E+00
 8  7-1.05315671E-05-5.87330685E-06 1.64048740E-05-1.71977637E-06 0.00000000E+00
 8  8 0.00000000E+00 2.10990726E-05 1.14693808E-05-3.25684531E-05 3.55515789E-06
 8  9 0.00000000E+00 0.00000000E+00-2.21141827E-08 2.56243537E-06-2.54032123E-06
 8 10-9.54027082E-07 0.00000000E+00 0.00000000E+00-3.76895834E-05-3.22766504E-05
 8 11 6.99662341E-05-1.99837971E-06 0.00000000E+00 0.00000000E+00 2.89620808E-05
 8 12 1.60698833E-05-4.50319636E-05 4.75953723E-06 0.00000000E+00 0.00000000E+00
 8 13 8.10584535E-06-8.60264023E-08 0.00000000E+00-3.33368655E-08 0.00000000E+00
 8 14-1.06404380E-05 0.00000000E+00-2.34694988E-07 1.48753395E-07 0.00000000E+00
 8 15-5.00447125E-05 8.12733291E-07 0.00000000E+00 3.63458983E-07 0.00000000E+00
 8 16 6.48679480E-05 0.00000000E+00 2.27407826E-06-1.45385511E-06 0.00000000E+00
 8 17-4.60925881E-06-3.81652861E-06-9.04847411E-06 6.00879822E-07 0.00000000E+00
 8 18-9.84091336E-07 0.00000000E+00 0.00000000E+00 0.00000000E+00-5.46911904E-07
 8 19 8.64362872E-06 7.25110290E-06 0.00000000E+00 0.00000000E+00 5.14132198E-07
 8 20 4.73155950E-01 3.86977072E-03 5.48815277E-04-1.02626835E-04 1.53832814E-04
 8 21-2.65833966E-04 0.00000000E+00-5.87451199E-05 1.01218634E-04 0.00000000E+00
 8 22 5.82217018E-05-9.85796297E-05 0.00000000E+00 2.13092692E-06-7.98497336E-06
 8 23 5.85404644E-06 1.00917629E-05 0.00000000E+00 0.00000000E+00-5.03575035E-06
 8 24 1.61563858E-05-1.11206355E-05-2.11270752E-05 0.00000000E+00 0.00000000E+00
 8 25-4.76035930E-06-2.95854369E-06 0.00000000E+00-1.38724108E-06 0.00000000E+00
 8 26 9.50211133E-06 0.00000000E+00-3.11541913E-06 5.35654396E-06 0.00000000E+00
 8 27 5.75702334E-01 4.71027995E-03 6.63867837E-04-1.31757809E-04 1.87222507E-04
 8 28 3.22950482E-04 0.00000000E+00-7.16111187E-05-1.22881762E-04 0.00000000E+00
 8 29 6.79970874E-05 1.12862706E-04 0.00000000E+00 2.37915941E-06-9.69627939E-06
 8 30 7.31711998E-06-1.20226953E-05 0.00000000E+00 0.00000000E+00-5.52161246E-06
 8 31 1.93318191E-05-1.38102066E-05 2.47114972E-05 0.00000000E+00 0.00000000E+00
 8 32-5.67432556E-06 3.66455878E-06 0.00000000E+00 1.77793506E-06 0.00000000E+00
 8 33 1.15273769E-05 0.00000000E+00-3.91447029E-06-6.69445657E-06 0.00000000E+00
 8 34 6.63313050E-01 5.42836991E-03 7.62164311E-04-1.56645725E-04-4.29817953E-04
 8 35-3.58082502E-07 0.00000000E+00 1.63748884E-04 3.10663921E-07 0.00000000E+00
 8 36-1.46484467E-04-1.32420035E-06 0.00000000E+00-1.79754977E-05 9.40815386E-06
 8 37 8.56734381E-06 2.09917745E-08 0.00000000E+00 0.00000000E+00 3.58800774E-05
 8 38-1.97715983E-05-1.61084791E-05-3.31855301E-08 0.00000000E+00 0.00000000E+00
 8 39-1.41042352E-05 2.50688381E-08 0.00000000E+00-5.35515937E-08 0.00000000E+00
 8 40 9.83685543E-06 0.00000000E+00 9.08596179E-06 1.99182181E-08 0.00000000E+00
 9  1 1.50966372E-01-5.43098496E-01 1.11277246E+00 4.58314266E-03-1.30639112E-04
 9  2 3.48275477E-03-1.60832548E-03 4.84455422E-04-9.54445632E-05-1.74864755E-10
 9  3 0.00000000E+00 0.00000000E+00 3.35941368E-10-2.71259632E-11 0.00000000E+00
 9  4 9.33460830E-11-9.53118264E-11 0.00000000E+00 3.61182437E-11 2.43827369E-10
 9  5 0.00000000E+00 0.00000000E+00-1.00660238E-10 0.00000000E+00-5.71183847E-11
 9  6 2.02448262E-10 0.00000000E+00 0.00000000E+00 4.17822820E-10 0.00000000E+00
 9  7 7.95218760E-05 7.95200173E-05-1.59041893E-04 6.96057555E-11 0.00000000E+00
 9  8 0.00000000E+00-1.28580983E-05-1.28620880E-05 2.57201864E-05-5.40352101E-11
 9  9 0.00000000E+00 0.00000000E+00 5.94388251E-06 5.94819278E-06-1.18920753E-05
 9 10-2.25875180E-11 0.00000000E+00 0.00000000E+00-2.39471103E-05-2.39484187E-05
 9 11 4.78955290E-05-2.85422222E-10 0.00000000E+00 0.00000000E+00 1.12974117E-05
 9 12 1.12973322E-05-2.25947438E-05-9.48041308E-11 0.00000000E+00 0.00000000E+00
 9 13 6.00983540E-06 0.00000000E+00 0.00000000E+00 0.00000000E+00 0.00000000E+00
 9 14-8.06308066E-06 0.00000000E+00 4.32569740E-11 0.00000000E+00 0.00000000E+00
 9 15-2.38656586E-05 5.33543396E-11 0.00000000E+00 1.98107875E-11 0.00000000E+00
 9 16 3.20191398E-05 0.00000000E+00 0.00000000E+00-9.13931456E-11 0.00000000E+00
 9 17-3.82060524E-06-3.82032708E-06-1.01877753E-05 0.00000000E+00 0.00000000E+00
 9 18 0.00000000E+00 0.00000000E+00 0.00000000E+00 0.00000000E+00-2.23691783E-06
 9 19 8.94826991E-06 8.94778128E-06 0.00000000E+00 0.00000000E+00 0.00000000E+00