 !Step 3: single point gmcpt calculation averaging 3 states
 !        for PH3+ at PH3 structure. The RHF orbitals at
 !        the MP2 optimized structure is taken as the initial
 !        guess of orbitals in the $VEC group. 3 states are asked
 !        for because state 4 and 5 are a bit higher. Now with the DMO group.
 !        The calculation should generate the DMO for diabatization calculation.
 $system kdiag=3 mwords=100 memddi=1000 parall=.t. $end
 $contrl runtyp=energy ispher=1 $end
 $contrl icut=9 itol=20 inttyp=rysquad qmttol=1.0d-05 nosym=1 $end
 $scf    npunch=2 conv=1.0d-06 dirscf=.t.      $end
 $contrl scftyp=mcscf  mult=2 maxit=200 icharg=1 mplevl=2 $end
 $guess  guess=moread norb=81 purify=.t. $end
 $basis  gbasis=cct $end
 $mcscf  cistep=gmcci fullnr=.t. finci=mos
         acurcy=1.d-6 maxit=100 $end
 $trans  dirtrf=.t. $end
 $mrmp   mrpt=gmcpt rdvecs=.f. $end
 $gmcpt  nmofzc=1 nmodoc=4 nmoact=7 nelact=7 stsym(1)=A
         reftyp=ormas nspace=1 mstart(1)=6 mine(1)=7 maxe(1)=7
         kstate(1)=1,1,1
         wstate(1)=1,1,1
         iwgt=0 thrwgt=-1.0 krot=.f. kszdoe=.f. knospn=.f.
         thrde=-1.0 edshft=0.02 $end
 $data
 PH3+ 3 states calculation at PH3 structure.
 C1
 P          15.0   0.0000000000  -0.0000000000   0.0000000000
 H           1.0  -0.6865501822   1.1891397976   0.0000000000
 H           1.0  -0.6865501822  -1.1891397976   0.0000000000
 H           1.0   1.3731003645   0.0000000000   0.0000000000
 $end
--- OPTIMIZED RHF      MO-S --- GENERATED AT Fri Nov 25 11:38:49 2022
E=     -342.6063604476, E(NUC)=   18.0100003883
 $VEC   
 1  1 1.00014481E+00 2.47521305E-04 2.03160000E-04-9.98161364E-04-1.81633056E-04
 1  2 0.00000000E+00 0.00000000E+00 0.00000000E+00 0.00000000E+00 0.00000000E+00
 1  3 0.00000000E+00 0.00000000E+00 0.00000000E+00 0.00000000E+00 0.00000000E+00
 1  4 0.00000000E+00 0.00000000E+00 5.83015861E-06 5.83015861E-06-1.16603172E-05
 1  5 0.00000000E+00 0.00000000E+00 0.00000000E+00 1.57134854E-05 1.57134854E-05
 1  6-3.14269709E-05 0.00000000E+00 0.00000000E+00 0.00000000E+00 1.78005224E-05
 1  7 0.00000000E+00 0.00000000E+00 0.00000000E+00 0.00000000E+00-2.38819068E-05
 1  8 0.00000000E+00 0.00000000E+00 0.00000000E+00 0.00000000E+00-1.67115711E-06
 1  9-1.67115711E-06 3.34231421E-06 0.00000000E+00 0.00000000E+00 0.00000000E+00
 1 10-2.75804119E-06-6.25811015E-05 3.06173948E-05 8.28732612E-07-1.43540699E-06
 1 11 0.00000000E+00-1.41209313E-05 2.44581704E-05 0.00000000E+00-8.31653618E-07
 1 12 5.12605018E-06-4.29439656E-06-5.95770379E-06 0.00000000E+00 0.00000000E+00
 1 13-2.75804119E-06-6.25811015E-05 3.06173948E-05 8.28732612E-07 1.43540699E-06
 1 14 0.00000000E+00-1.41209313E-05-2.44581704E-05 0.00000000E+00-8.31653618E-07
 1 15 5.12605018E-06-4.29439656E-06 5.95770379E-06 0.00000000E+00 0.00000000E+00
 1 16-2.75804119E-06-6.25811015E-05 3.06173948E-05-1.65746522E-06 0.00000000E+00
 1 17 0.00000000E+00 2.82418625E-05 0.00000000E+00 0.00000000E+00 8.10490207E-06
 1 18-3.81050552E-06-4.29439656E-06 0.00000000E+00 0.00000000E+00 0.00000000E+00
 2  1 6.67631728E-04-9.52984989E-01 2.63713503E-03-6.38898952E-02-3.47527482E-03
 2  2 0.00000000E+00 0.00000000E+00 0.00000000E+00 0.00000000E+00 0.00000000E+00
 2  3 0.00000000E+00 0.00000000E+00 0.00000000E+00 0.00000000E+00 0.00000000E+00
 2  4 0.00000000E+00 0.00000000E+00-8.51652964E-05-8.51652964E-05 1.70330593E-04
 2  5 0.00000000E+00 0.00000000E+00 0.00000000E+00 2.32094716E-04 2.32094716E-04
 2  6-4.64189432E-04 0.00000000E+00 0.00000000E+00 0.00000000E+00-4.48511904E-05
 2  7 0.00000000E+00 0.00000000E+00 0.00000000E+00 0.00000000E+00 6.01741863E-05
 2  8 0.00000000E+00 0.00000000E+00 0.00000000E+00 0.00000000E+00-1.79740690E-04
 2  9-1.79740690E-04 3.59481379E-04 0.00000000E+00 0.00000000E+00 0.00000000E+00
 2 10-1.82452108E-04-9.40415806E-04 5.03394997E-04-6.08962355E-06 1.05475374E-05
 2 11 0.00000000E+00-1.92755837E-04 3.33862903E-04 0.00000000E+00 3.19071903E-06
 2 12-3.36098845E-05 3.04191654E-05 3.68006035E-05 0.00000000E+00 0.00000000E+00
 2 13-1.82452108E-04-9.40415806E-04 5.03394997E-04-6.08962355E-06-1.05475374E-05
 2 14 0.00000000E+00-1.92755837E-04-3.33862903E-04 0.00000000E+00 3.19071903E-06
 2 15-3.36098845E-05 3.04191654E-05-3.68006035E-05 0.00000000E+00 0.00000000E+00
 2 16-1.82452108E-04-9.40415806E-04 5.03394997E-04 1.21792471E-05 0.00000000E+00
 2 17 0.00000000E+00 3.85511673E-04 0.00000000E+00 0.00000000E+00-5.20101862E-05
 2 18 2.15910208E-05 3.04191654E-05 0.00000000E+00 0.00000000E+00 0.00000000E+00
 3  1 0.00000000E+00 0.00000000E+00 0.00000000E+00 0.00000000E+00 0.00000000E+00
 3  2 0.00000000E+00 0.00000000E+00-9.61275186E-01 0.00000000E+00 0.00000000E+00
 3  3 1.36302729E-04 0.00000000E+00 0.00000000E+00-7.56020456E-02 0.00000000E+00
 3  4 0.00000000E+00-1.37783890E-03 0.00000000E+00 0.00000000E+00 0.00000000E+00
 3  5 0.00000000E+00 0.00000000E+00 0.00000000E+00 0.00000000E+00 0.00000000E+00
 3  6 0.00000000E+00 0.00000000E+00 0.00000000E+00 0.00000000E+00 0.00000000E+00
 3  7 0.00000000E+00 1.95552569E-04 0.00000000E+00-1.31180651E-04 0.00000000E+00
 3  8-1.31180651E-04 0.00000000E+00 0.00000000E+00 0.00000000E+00 0.00000000E+00
 3  9 0.00000000E+00 0.00000000E+00 0.00000000E+00 0.00000000E+00 0.00000000E+00
 3 10 0.00000000E+00 0.00000000E+00 0.00000000E+00 0.00000000E+00 0.00000000E+00
 3 11-4.58386439E-05 0.00000000E+00 0.00000000E+00-1.47623014E-04 0.00000000E+00
 3 12 0.00000000E+00 0.00000000E+00 0.00000000E+00 9.41977766E-06-1.63155335E-05
 3 13 0.00000000E+00 0.00000000E+00 0.00000000E+00 0.00000000E+00 0.00000000E+00
 3 14-4.58386439E-05 0.00000000E+00 0.00000000E+00-1.47623014E-04 0.00000000E+00
 3 15 0.00000000E+00 0.00000000E+00 0.00000000E+00 9.41977766E-06 1.63155335E-05
 3 16 0.00000000E+00 0.00000000E+00 0.00000000E+00 0.00000000E+00 0.00000000E+00
 3 17-4.58386439E-05 0.00000000E+00 0.00000000E+00-1.47623014E-04 0.00000000E+00
 3 18 0.00000000E+00 0.00000000E+00 0.00000000E+00-1.88395553E-05 0.00000000E+00
 4  1 0.00000000E+00 0.00000000E+00 0.00000000E+00 0.00000000E+00 0.00000000E+00
 4  2-9.58123844E-01 0.00000000E+00 0.00000000E+00 3.54914210E-03 0.00000000E+00
 4  3 0.00000000E+00-7.91222939E-02 0.00000000E+00 0.00000000E+00-1.18165466E-03
 4  4 0.00000000E+00 0.00000000E+00-1.82851229E-04 1.82851229E-04 0.00000000E+00
 4  5 0.00000000E+00 0.00000000E+00 0.00000000E+00 1.45928191E-03-1.45928191E-03
 4  6 0.00000000E+00 0.00000000E+00 0.00000000E+00 0.00000000E+00 8.78500164E-05
 4  7 0.00000000E+00 0.00000000E+00 0.00000000E+00 0.00000000E+00 3.92877217E-05
 4  8 0.00000000E+00-1.57150887E-04 0.00000000E+00 0.00000000E+00 3.86175209E-04
 4  9-3.86175209E-04 0.00000000E+00 0.00000000E+00 0.00000000E+00 0.00000000E+00
 4 10 3.11102507E-04 1.84678801E-03-1.69530137E-04-8.56924902E-05-3.49455559E-05
 4 11 0.00000000E+00 4.34719426E-04-6.22727006E-04 0.00000000E+00-2.66059398E-05
 4 12-2.54981002E-06 2.91557498E-05 1.52074805E-05 0.00000000E+00 0.00000000E+00
 4 13 3.11102507E-04 1.84678801E-03-1.69530137E-04-8.56924902E-05 3.49455559E-05
 4 14 0.00000000E+00 4.34719426E-04 6.22727006E-04 0.00000000E+00-2.66059398E-05
 4 15-2.54981002E-06 2.91557498E-05-1.52074805E-05 0.00000000E+00 0.00000000E+00
 4 16-6.22205013E-04-3.69357602E-03 3.39060273E-04-2.51650120E-05 0.00000000E+00
 4 17 0.00000000E+00 1.51331424E-03 0.00000000E+00 0.00000000E+00 3.99389056E-05
 4 18 1.83725940E-05-5.83114996E-05 0.00000000E+00 0.00000000E+00 0.00000000E+00
 5  1 0.00000000E+00 0.00000000E+00 0.00000000E+00 0.00000000E+00 0.00000000E+00
 5  2 0.00000000E+00-9.58123844E-01 0.00000000E+00 0.00000000E+00 3.54914210E-03
 5  3 0.00000000E+00 0.00000000E+00-7.91222939E-02 0.00000000E+00 0.00000000E+00
 5  4-1.18165466E-03 0.00000000E+00 0.00000000E+00 0.00000000E+00 0.00000000E+00
 5  5 2.11138413E-04 0.00000000E+00 0.00000000E+00 0.00000000E+00 0.00000000E+00
 5  6 0.00000000E+00-1.68503361E-03 0.00000000E+00 0.00000000E+00 0.00000000E+00
 5  7 8.78500164E-05 0.00000000E+00 3.92877217E-05 0.00000000E+00 0.00000000E+00
 5  8 0.00000000E+00 0.00000000E+00-1.57150887E-04 0.00000000E+00 0.00000000E+00
 5  9 0.00000000E+00 0.00000000E+00-4.45916721E-04 0.00000000E+00 0.00000000E+00
 5 10-5.38845348E-04-3.19873066E-03 2.93634810E-04-3.49455559E-05-4.53408381E-05
 5 11 0.00000000E+00-6.22727006E-04 1.15378264E-03 0.00000000E+00 1.20795556E-05
 5 12 3.84196844E-05-5.04992400E-05-3.67127288E-06 0.00000000E+00 0.00000000E+00
 5 13 5.38845348E-04 3.19873066E-03-2.93634810E-04 3.49455559E-05-4.53408381E-05
 5 14 0.00000000E+00 6.22727006E-04 1.15378264E-03 0.00000000E+00-1.20795556E-05
 5 15-3.84196844E-05 5.04992400E-05-3.67127288E-06 0.00000000E+00 0.00000000E+00
 5 16 0.00000000E+00 0.00000000E+00 0.00000000E+00 0.00000000E+00-1.05868316E-04
 5 17 0.00000000E+00 0.00000000E+00 7.51878210E-05 0.00000000E+00 0.00000000E+00
 5 18 0.00000000E+00 0.00000000E+00 2.26688559E-05 0.00000000E+00 0.00000000E+00
 6  1 4.93209157E-04 1.50225943E-02-5.03031256E-01-4.50258092E-02-2.43774253E-01
 6  2 0.00000000E+00 0.00000000E+00 0.00000000E+00 0.00000000E+00 0.00000000E+00
 6  3 0.00000000E+00 0.00000000E+00 0.00000000E+00 0.00000000E+00 0.00000000E+00
 6  4 0.00000000E+00 0.00000000E+00-1.26291971E-02-1.26291971E-02 2.52583942E-02
 6  5 0.00000000E+00 0.00000000E+00 0.00000000E+00-6.00765550E-03-6.00765550E-03
 6  6 1.20153110E-02 0.00000000E+00 0.00000000E+00 0.00000000E+00-1.44252512E-02
 6  7 0.00000000E+00 0.00000000E+00 0.00000000E+00 0.00000000E+00 1.93535054E-02
 6  8 0.00000000E+00 0.00000000E+00 0.00000000E+00 0.00000000E+00-2.08492933E-03
 6  9-2.08492933E-03 4.16985867E-03 0.00000000E+00 0.00000000E+00 0.00000000E+00
 6 10-7.96089656E-02-1.14916985E-01-2.06634147E-02-3.51968613E-03 6.09627520E-03
 6 11 0.00000000E+00-5.68490649E-03 9.84654687E-03 0.00000000E+00-8.54112470E-05
 6 12-1.55093903E-03 1.63635027E-03 1.46552778E-03 0.00000000E+00 0.00000000E+00
 6 13-7.96089656E-02-1.14916985E-01-2.06634147E-02-3.51968613E-03-6.09627520E-03
 6 14 0.00000000E+00-5.68490649E-03-9.84654687E-03 0.00000000E+00-8.54112470E-05
 6 15-1.55093903E-03 1.63635027E-03-1.46552778E-03 0.00000000E+00 0.00000000E+00
 6 16-7.96089656E-02-1.14916985E-01-2.06634147E-02 7.03937226E-03 0.00000000E+00
 6 17 0.00000000E+00 1.13698130E-02 0.00000000E+00 0.00000000E+00-2.28370292E-03
 6 18 6.47352643E-04 1.63635027E-03 0.00000000E+00 0.00000000E+00 0.00000000E+00
 7  1 0.00000000E+00 0.00000000E+00 0.00000000E+00 0.00000000E+00 0.00000000E+00
 7  2 3.53231336E-02 0.00000000E+00 0.00000000E+00-3.52296776E-01 0.00000000E+00
 7  3 0.00000000E+00-1.05317609E-01 0.00000000E+00 0.00000000E+00-1.18039958E-01
 7  4 0.00000000E+00 0.00000000E+00-4.87679762E-02 4.87679762E-02 0.00000000E+00
 7  5 0.00000000E+00 0.00000000E+00 0.00000000E+00-4.34982884E-02 4.34982884E-02
 7  6 0.00000000E+00 0.00000000E+00 0.00000000E+00 0.00000000E+00-8.40380802E-03
 7  7 0.00000000E+00 0.00000000E+00 0.00000000E+00 0.00000000E+00-3.75829720E-03
 7  8 0.00000000E+00 1.50331888E-02 0.00000000E+00 0.00000000E+00-8.95090929E-03
 7  9 8.95090929E-03 0.00000000E+00 0.00000000E+00 0.00000000E+00 0.00000000E+00
 7 10 8.00647465E-02 1.31408052E-01 5.88043080E-02 1.53687356E-03-5.55102154E-03
 7 11 0.00000000E+00-2.61544910E-04-9.13353771E-03 0.00000000E+00-1.08778952E-03
 7 12 2.12836542E-03-1.04057591E-03-7.49920070E-04 0.00000000E+00 0.00000000E+00
 7 13 8.00647465E-02 1.31408052E-01 5.88043080E-02 1.53687356E-03 5.55102154E-03
 7 14 0.00000000E+00-2.61544910E-04 9.13353771E-03 0.00000000E+00-1.08778952E-03
 7 15 2.12836542E-03-1.04057591E-03 7.49920070E-04 0.00000000E+00 0.00000000E+00
 7 16-1.60129493E-01-2.62816104E-01-1.17608616E-01 1.11515249E-02 0.00000000E+00
 7 17 0.00000000E+00 1.55582064E-02 0.00000000E+00 0.00000000E+00-3.77353348E-03
 7 18 1.69238167E-03 2.08115181E-03 0.00000000E+00 0.00000000E+00 0.00000000E+00
 8  1 0.00000000E+00 0.00000000E+00 0.00000000E+00 0.00000000E+00 0.00000000E+00
 8  2 0.00000000E+00 3.53231336E-02 0.00000000E+00 0.00000000E+00-3.52296776E-01
 8  3 0.00000000E+00 0.00000000E+00-1.05317609E-01 0.00000000E+00 0.00000000E+00
 8  4-1.18039958E-01 0.00000000E+00 0.00000000E+00 0.00000000E+00 0.00000000E+00
 8  5 5.63124083E-02 0.00000000E+00 0.00000000E+00 0.00000000E+00 0.00000000E+00
 8  6 0.00000000E+00 5.02274971E-02 0.00000000E+00 0.00000000E+00 0.00000000E+00
 8  7-8.40380802E-03 0.00000000E+00-3.75829720E-03 0.00000000E+00 0.00000000E+00
 8  8 0.00000000E+00 0.00000000E+00 1.50331888E-02 0.00000000E+00 0.00000000E+00
 8  9 0.00000000E+00 0.00000000E+00 1.03356198E-02 0.00000000E+00 0.00000000E+00
 8 10-1.38676209E-01-2.27605423E-01-1.01852049E-01-5.55102154E-03 7.94664112E-03
 8 11 0.00000000E+00-9.13353771E-03 1.02849560E-02 0.00000000E+00-2.51715338E-04
 8 12-1.55061500E-03 1.80233034E-03 2.72278103E-03 0.00000000E+00 0.00000000E+00
 8 13 1.38676209E-01 2.27605423E-01 1.01852049E-01 5.55102154E-03 7.94664112E-03
 8 14 0.00000000E+00 9.13353771E-03 1.02849560E-02 0.00000000E+00 2.51715338E-04
 8 15 1.55061500E-03-1.80233034E-03 2.72278103E-03 0.00000000E+00 0.00000000E+00
 8 16 0.00000000E+00 0.00000000E+00 0.00000000E+00 0.00000000E+00-1.66801023E-03
 8 17 0.00000000E+00 0.00000000E+00-5.53479536E-03 0.00000000E+00 0.00000000E+00
 8 18 0.00000000E+00 0.00000000E+00 1.42388137E-03 0.00000000E+00 0.00000000E+00
 9  1 0.00000000E+00 0.00000000E+00 0.00000000E+00 0.00000000E+00 0.00000000E+00
 9  2 0.00000000E+00 0.00000000E+00 2.39562200E-02 0.00000000E+00 0.00000000E+00
 9  3-4.86833713E-01 0.00000000E+00 0.00000000E+00-1.49327714E-01 0.00000000E+00
 9  4 0.00000000E+00-4.94684336E-01 0.00000000E+00 0.00000000E+00 0.00000000E+00
 9  5 0.00000000E+00 0.00000000E+00 0.00000000E+00 0.00000000E+00 0.00000000E+00
 9  6 0.00000000E+00 0.00000000E+00 0.00000000E+00 0.00000000E+00 0.00000000E+00
 9  7 0.00000000E+00 1.12775389E-02 0.00000000E+00-7.56520306E-03 0.00000000E+00
 9  8-7.56520306E-03 0.00000000E+00 0.00000000E+00 0.00000000E+00 0.00000000E+00
 9  9 0.00000000E+00 0.00000000E+00 0.00000000E+00 0.00000000E+00 0.00000000E+00
 9 10 0.00000000E+00 0.00000000E+00 0.00000000E+00 0.00000000E+00 0.00000000E+00
 9 11-5.25555755E-03 0.00000000E+00 0.00000000E+00-2.23997059E-02 0.00000000E+00
 9 12 0.00000000E+00 0.00000000E+00 0.00000000E+00-1.21812083E-03 2.10984717E-03
 9 13 0.00000000E+00 0.00000000E+00 0.00000000E+00 0.00000000E+00 0.00000000E+00
 9 14-5.25555755E-03 0.00000000E+00 0.00000000E+00-2.23997059E-02 0.00000000E+00
 9 15 0.00000000E+00 0.00000000E+00 0.00000000E+00-1.21812083E-03-2.10984717E-03
 9 16 0.00000000E+00 0.00000000E+00 0.00000000E+00 0.00000000E+00 0.00000000E+00
 9 17-5.25555755E-03 0.00000000E+00 0.00000000E+00-2.23997059E-02 0.00000000E+00
 9 18 0.00000000E+00 0.00000000E+00 0.00000000E+00 2.43624166E-03 0.00000000E+00
10  1 6.60453071E-03 3.43314404E-02-2.86972359E-01 9.92546940E-03-2.53657741E+00
10  2 0.00000000E+00 0.00000000E+00 0.00000000E+00 0.00000000E+00 0.00000000E+00
10  3 0.00000000E+00 0.00000000E+00 0.00000000E+00 0.00000000E+00 0.00000000E+00
10  4 0.00000000E+00 0.00000000E+00 1.80286507E-02 1.80286507E-02-3.60573013E-02
10  5 0.00000000E+00 0.00000000E+00 0.00000000E+00-2.99998168E-02-2.99998168E-02
10  6 5.99996335E-02 0.00000000E+00 0.00000000E+00 0.00000000E+00-2.59812190E-02
10  7 0.00000000E+00 0.00000000E+00 0.00000000E+00 0.00000000E+00 3.48574631E-02
10  8 0.00000000E+00 0.00000000E+00 0.00000000E+00 0.00000000E+00 5.11243656E-03
10  9 5.11243656E-03-1.02248731E-02 0.00000000E+00 0.00000000E+00 0.00000000E+00
10 10 5.90060191E-02 1.57038027E-01 1.16202599E+00-6.15246823E-03 1.06563876E-02
10 11 0.00000000E+00 4.38603009E-02-7.59682695E-02 0.00000000E+00 7.92289963E-05
10 12 4.48072589E-03-4.55995489E-03-4.40149690E-03 0.00000000E+00 0.00000000E+00
10 13 5.90060191E-02 1.57038027E-01 1.16202599E+00-6.15246823E-03-1.06563876E-02
10 14 0.00000000E+00 4.38603009E-02 7.59682695E-02 0.00000000E+00 7.92289963E-05
10 15 4.48072589E-03-4.55995489E-03 4.40149690E-03 0.00000000E+00 0.00000000E+00
10 16 5.90060191E-02 1.57038027E-01 1.16202599E+00 1.23049365E-02 0.00000000E+00
10 17 0.00000000E+00-8.77206017E-02 0.00000000E+00 0.00000000E+00 6.68147434E-03
10 18-2.12151945E-03-4.55995489E-03 0.00000000E+00 0.00000000E+00 0.00000000E+00
11  1 0.00000000E+00 0.00000000E+00 0.00000000E+00 0.00000000E+00 0.00000000E+00
11  2-1.17181106E-02 0.00000000E+00 0.00000000E+00-2.84908434E-01 0.00000000E+00
11  3 0.00000000E+00-7.48550156E-02 0.00000000E+00 0.00000000E+00-2.06457026E+00
11  4 0.00000000E+00 0.00000000E+00 6.59752168E-02-6.59752168E-02 0.00000000E+00
11  5 0.00000000E+00 0.00000000E+00 0.00000000E+00-9.57908648E-02 9.57908648E-02
11  6 0.00000000E+00 0.00000000E+00 0.00000000E+00 0.00000000E+00-1.92202603E-02
11  7 0.00000000E+00 0.00000000E+00 0.00000000E+00 0.00000000E+00-8.59556170E-03
11  8 0.00000000E+00 3.43822468E-02 0.00000000E+00 0.00000000E+00 1.36097998E-02
11  9-1.36097998E-02 0.00000000E+00 0.00000000E+00 0.00000000E+00 0.00000000E+00
11 10-2.51286467E-02-1.25245174E-01-1.04943793E+00-1.80489186E-03-1.05169620E-02
11 11 0.00000000E+00-6.85854897E-02 3.27635501E-02 0.00000000E+00-2.38026666E-03
11 12 1.38109070E-03 9.99175952E-04 3.68836014E-03 0.00000000E+00 0.00000000E+00
11 13-2.51286467E-02-1.25245174E-01-1.04943793E+00-1.80489186E-03 1.05169620E-02
11 14 0.00000000E+00-6.85854897E-02-3.27635501E-02 0.00000000E+00-2.38026666E-03
11 15 1.38109070E-03 9.99175952E-04-3.68836014E-03 0.00000000E+00 0.00000000E+00
11 16 5.02572933E-02 2.50490347E-01 2.09887586E+00 1.64110206E-02 0.00000000E+00
11 17 0.00000000E+00-1.25333623E-01 0.00000000E+00 0.00000000E+00 4.65103748E-03
11 18-2.65268558E-03-1.99835190E-03 0.00000000E+00 0.00000000E+00 0.00000000E+00
12  1 0.00000000E+00 0.00000000E+00 0.00000000E+00 0.00000000E+00 0.00000000E+00
12  2 0.00000000E+00-1.17181106E-02 0.00000000E+00 0.00000000E+00-2.84908434E-01
12  3 0.00000000E+00 0.00000000E+00-7.48550156E-02 0.00000000E+00 0.00000000E+00
12  4-2.06457026E+00 0.00000000E+00 0.00000000E+00 0.00000000E+00 0.00000000E+00
12  5-7.61816184E-02 0.00000000E+00 0.00000000E+00 0.00000000E+00 0.00000000E+00
12  6 0.00000000E+00 1.10609763E-01 0.00000000E+00 0.00000000E+00 0.00000000E+00
12  7-1.92202603E-02 0.00000000E+00-8.59556170E-03 0.00000000E+00 0.00000000E+00
12  8 0.00000000E+00 0.00000000E+00 3.43822468E-02 0.00000000E+00 0.00000000E+00
12  9 0.00000000E+00 0.00000000E+00-1.57152431E-02 0.00000000E+00 0.00000000E+00
12 10 4.35240928E-02 2.16931004E-01 1.81767981E+00-1.05169620E-02 1.03390498E-02
12 11 0.00000000E+00 3.27635501E-02-1.06417579E-01 0.00000000E+00-2.32890182E-03
12 12 4.05952534E-03-1.73062352E-03-2.08733075E-03 0.00000000E+00 0.00000000E+00
12 13-4.35240928E-02-2.16931004E-01-1.81767981E+00 1.05169620E-02 1.03390498E-02
12 14 0.00000000E+00-3.27635501E-02-1.06417579E-01 0.00000000E+00 2.32890182E-03
12 15-4.05952534E-03 1.73062352E-03-2.08733075E-03 0.00000000E+00 0.00000000E+00
12 16 0.00000000E+00 0.00000000E+00 0.00000000E+00 0.00000000E+00-7.87686269E-03
12 17 0.00000000E+00 0.00000000E+00-4.96694453E-02 0.00000000E+00 0.00000000E+00
12 18 0.00000000E+00 0.00000000E+00 4.30109640E-03 0.00000000E+00 0.00000000E+00
13  1 0.00000000E+00 0.00000000E+00 0.00000000E+00 0.00000000E+00 0.00000000E+00
13  2-1.97129521E-01 0.00000000E+00 0.00000000E+00-6.11918619E-01 0.00000000E+00
13  3 0.00000000E+00 1.04984397E-02 0.00000000E+00 0.00000000E+00 1.76107520E-01
13  4 0.00000000E+00 0.00000000E+00-8.08004948E-02 8.08004948E-02 0.00000000E+00
13  5 0.00000000E+00 0.00000000E+00 0.00000000E+00-2.75837469E-01 2.75837469E-01
13  6 0.00000000E+00 0.00000000E+00 0.00000000E+00 0.00000000E+00-6.21820160E-03
13  7 0.00000000E+00 0.00000000E+00 0.00000000E+00 0.00000000E+00-2.78086429E-03
13  8 0.00000000E+00 1.11234572E-02 0.00000000E+00 0.00000000E+00-1.71590427E-02
13  9 1.71590427E-02 0.00000000E+00 0.00000000E+00 0.00000000E+00 0.00000000E+00
13 10 2.35347811E-02 2.31274699E-01-6.69492843E-01 6.42982650E-03-8.19128112E-03
13 11 0.00000000E+00-1.25612265E-02 7.20793477E-02 0.00000000E+00 9.57085773E-04
13 12-4.16489044E-03 3.20780467E-03 5.60978596E-03 0.00000000E+00 0.00000000E+00
13 13 2.35347811E-02 2.31274699E-01-6.69492843E-01 6.42982650E-03 8.19128112E-03
13 14 0.00000000E+00-1.25612265E-02-7.20793477E-02 0.00000000E+00 9.57085773E-04
13 15-4.16489044E-03 3.20780467E-03-5.60978596E-03 0.00000000E+00 0.00000000E+00
13 16-4.70695622E-02-4.62549399E-01 1.33898569E+00 2.06175416E-02 0.00000000E+00
13 17 0.00000000E+00-1.37406319E-01 0.00000000E+00 0.00000000E+00 1.41834717E-02
13 18-7.76786238E-03-6.41560934E-03 0.00000000E+00 0.00000000E+00 0.00000000E+00
14  1 0.00000000E+00 0.00000000E+00 0.00000000E+00 0.00000000E+00 0.00000000E+00
14  2 0.00000000E+00-1.97129521E-01 0.00000000E+00 0.00000000E+00-6.11918619E-01
14  3 0.00000000E+00 0.00000000E+00 1.04984397E-02 0.00000000E+00 0.00000000E+00
14  4 1.76107520E-01 0.00000000E+00 0.00000000E+00 0.00000000E+00 0.00000000E+00
14  5 9.33003748E-02 0.00000000E+00 0.00000000E+00 0.00000000E+00 0.00000000E+00
14  6 0.00000000E+00 3.18509674E-01 0.00000000E+00 0.00000000E+00 0.00000000E+00
14  7-6.21820160E-03 0.00000000E+00-2.78086429E-03 0.00000000E+00 0.00000000E+00
14  8 0.00000000E+00 0.00000000E+00 1.11234572E-02 0.00000000E+00 0.00000000E+00
14  9 0.00000000E+00 0.00000000E+00 1.98135559E-02 0.00000000E+00 0.00000000E+00
14 10-4.07634366E-02-4.00579530E-01 1.15959562E+00-8.19128112E-03 1.58883032E-02
14 11 0.00000000E+00 7.20793477E-02-9.57912881E-02 0.00000000E+00-2.08017682E-03
14 12 7.63625749E-03-5.55608067E-03-9.43479722E-03 0.00000000E+00 0.00000000E+00
14 13 4.07634366E-02 4.00579530E-01-1.15959562E+00 8.19128112E-03 1.58883032E-02
14 14 0.00000000E+00-7.20793477E-02-9.57912881E-02 0.00000000E+00 2.08017682E-03
14 15-7.63625749E-03 5.55608067E-03-9.43479722E-03 0.00000000E+00 0.00000000E+00
14 16 0.00000000E+00 0.00000000E+00 0.00000000E+00 0.00000000E+00 1.70058814E-03
14 17 0.00000000E+00 0.00000000E+00 2.90538043E-02 0.00000000E+00 0.00000000E+00
14 18 0.00000000E+00 0.00000000E+00 2.81637090E-04 0.00000000E+00 0.00000000E+00
15  1 3.37152120E-02 2.29075466E-01 3.02751362E-01-3.48004295E-03 1.40301721E-01
15  2 0.00000000E+00 0.00000000E+00 0.00000000E+00 0.00000000E+00 0.00000000E+00
15  3 0.00000000E+00 0.00000000E+00 0.00000000E+00 0.00000000E+00 0.00000000E+00
15  4 0.00000000E+00 0.00000000E+00 4.90891438E-02 4.90891438E-02-9.81782877E-02
15  5 0.00000000E+00 0.00000000E+00 0.00000000E+00 2.09346137E-01 2.09346137E-01
15  6-4.18692274E-01 0.00000000E+00 0.00000000E+00 0.00000000E+00 3.46019911E-03
15  7 0.00000000E+00 0.00000000E+00 0.00000000E+00 0.00000000E+00-4.64234426E-03
15  8 0.00000000E+00 0.00000000E+00 0.00000000E+00 0.00000000E+00 1.50258704E-02
15  9 1.50258704E-02-3.00517409E-02 0.00000000E+00 0.00000000E+00 0.00000000E+00
15 10 7.41989904E-02 4.68599722E-01-6.38879778E-01 8.00769287E-03-1.38697309E-02
15 11 0.00000000E+00-3.79991222E-02 6.58164103E-02 0.00000000E+00 7.74583679E-05
15 12 1.36758780E-05-9.11342459E-05 6.37824899E-05 0.00000000E+00 0.00000000E+00
15 13 7.41989904E-02 4.68599722E-01-6.38879778E-01 8.00769287E-03 1.38697309E-02
15 14 0.00000000E+00-3.79991222E-02-6.58164103E-02 0.00000000E+00 7.74583679E-05
15 15 1.36758780E-05-9.11342459E-05-6.37824899E-05 0.00000000E+00 0.00000000E+00
15 16 7.41989904E-02 4.68599722E-01-6.38879778E-01-1.60153857E-02 0.00000000E+00
15 17 0.00000000E+00 7.59982444E-02 0.00000000E+00 0.00000000E+00-1.82153669E-05
15 18 1.09349613E-04-9.11342459E-05 0.00000000E+00 0.00000000E+00 0.00000000E+00
16  1 0.00000000E+00 0.00000000E+00 0.00000000E+00 0.00000000E+00 0.00000000E+00
16  2 0.00000000E+00 0.00000000E+00 0.00000000E+00 0.00000000E+00 0.00000000E+00
16  3 0.00000000E+00 0.00000000E+00 0.00000000E+00 0.00000000E+00 0.00000000E+00
16  4 0.00000000E+00 0.00000000E+00 0.00000000E+00 0.00000000E+00 0.00000000E+00
16  5 0.00000000E+00 0.00000000E+00-9.75542180E-02 0.00000000E+00 0.00000000E+00
16  6 0.00000000E+00 0.00000000E+00 0.00000000E+00-8.25839570E-01 0.00000000E+00
16  7 0.00000000E+00 0.00000000E+00 0.00000000E+00 0.00000000E+00 0.00000000E+00
16  8 0.00000000E+00 0.00000000E+00 0.00000000E+00 4.81477782E-03 0.00000000E+00
16  9 0.00000000E+00 0.00000000E+00 0.00000000E+00 0.00000000E+00-4.68298865E-02
16 10 0.00000000E+00 0.00000000E+00 0.00000000E+00 0.00000000E+00 0.00000000E+00
16 11 2.16350493E-03 0.00000000E+00 0.00000000E+00-1.08275990E-01 0.00000000E+00
16 12 0.00000000E+00 0.00000000E+00 0.00000000E+00 3.41874582E-03-6.31957491E-03
16 13 0.00000000E+00 0.00000000E+00 0.00000000E+00 0.00000000E+00 0.00000000E+00
16 14-2.16350493E-03 0.00000000E+00 0.00000000E+00 1.08275990E-01 0.00000000E+00
16 15 0.00000000E+00 0.00000000E+00 0.00000000E+00-3.41874582E-03-6.31957491E-03
16 16 0.00000000E+00 0.00000000E+00 0.00000000E+00 0.00000000E+00 0.00000000E+00
16 17 0.00000000E+00 0.00000000E+00 0.00000000E+00 0.00000000E+00 0.00000000E+00
16 18 0.00000000E+00 0.00000000E+00 0.00000000E+00 0.00000000E+00-3.98133460E-04
17  1 0.00000000E+00 0.00000000E+00 0.00000000E+00 0.00000000E+00 0.00000000E+00
17  2 0.00000000E+00 0.00000000E+00 0.00000000E+00 0.00000000E+00 0.00000000E+00
17  3 0.00000000E+00 0.00000000E+00 0.00000000E+00 0.00000000E+00 0.00000000E+00
17  4 0.00000000E+00 0.00000000E+00 0.00000000E+00 0.00000000E+00 0.00000000E+00
17  5 0.00000000E+00 9.75542180E-02 0.00000000E+00 0.00000000E+00 0.00000000E+00
17  6 0.00000000E+00 0.00000000E+00 8.25839570E-01 0.00000000E+00 0.00000000E+00
17  7 0.00000000E+00 0.00000000E+00 0.00000000E+00 4.16971990E-03 0.00000000E+00
17  8-4.16971990E-03 0.00000000E+00 0.00000000E+00 0.00000000E+00 0.00000000E+00
17  9 0.00000000E+00 0.00000000E+00 0.00000000E+00 4.68298865E-02 0.00000000E+00
17 10 0.00000000E+00 0.00000000E+00 0.00000000E+00 0.00000000E+00 0.00000000E+00
17 11 1.24910015E-03 0.00000000E+00 0.00000000E+00-6.25131722E-02 0.00000000E+00
17 12 0.00000000E+00 0.00000000E+00 0.00000000E+00 2.37194728E-03-3.41874582E-03
17 13 0.00000000E+00 0.00000000E+00 0.00000000E+00 0.00000000E+00 0.00000000E+00
17 14 1.24910015E-03 0.00000000E+00 0.00000000E+00-6.25131722E-02 0.00000000E+00
17 15 0.00000000E+00 0.00000000E+00 0.00000000E+00 2.37194728E-03 3.41874582E-03
17 16 0.00000000E+00 0.00000000E+00 0.00000000E+00 0.00000000E+00 0.00000000E+00
17 17-2.49820030E-03 0.00000000E+00 0.00000000E+00 1.25026344E-01 0.00000000E+00
17 18 0.00000000E+00 0.00000000E+00 0.00000000E+00 8.29338873E-03 0.00000000E+00
18  1 0.00000000E+00 0.00000000E+00 0.00000000E+00 0.00000000E+00 0.00000000E+00
18  2 0.00000000E+00 0.00000000E+00-3.43751440E-01 0.00000000E+00 0.00000000E+00
18  3-1.25848100E+00 0.00000000E+00 0.00000000E+00-1.90954572E-02 0.00000000E+00
18  4 0.00000000E+00 1.37495645E+00 0.00000000E+00 0.00000000E+00 0.00000000E+00
18  5 0.00000000E+00 0.00000000E+00 0.00000000E+00 0.00000000E+00 0.00000000E+00
18  6 0.00000000E+00 0.00000000E+00 0.00000000E+00 0.00000000E+00 0.00000000E+00
18  7 0.00000000E+00-6.90308765E-03 0.00000000E+00 4.63073197E-03 0.00000000E+00
18  8 4.63073197E-03 0.00000000E+00 0.00000000E+00 0.00000000E+00 0.00000000E+00
18  9 0.00000000E+00 0.00000000E+00 0.00000000E+00 0.00000000E+00 0.00000000E+00
18 10 0.00000000E+00 0.00000000E+00 0.00000000E+00 0.00000000E+00 0.00000000E+00
18 11 6.77095289E-03 0.00000000E+00 0.00000000E+00-6.31793584E-02 0.00000000E+00
18 12 0.00000000E+00 0.00000000E+00 0.00000000E+00 3.40227846E-04-5.89291916E-04
18 13 0.00000000E+00 0.00000000E+00 0.00000000E+00 0.00000000E+00 0.00000000E+00
18 14 6.77095289E-03 0.00000000E+00 0.00000000E+00-6.31793584E-02 0.00000000E+00
18 15 0.00000000E+00 0.00000000E+00 0.00000000E+00 3.40227846E-04 5.89291916E-04
18 16 0.00000000E+00 0.00000000E+00 0.00000000E+00 0.00000000E+00 0.00000000E+00
18 17 6.77095289E-03 0.00000000E+00 0.00000000E+00-6.31793584E-02 0.00000000E+00
18 18 0.00000000E+00 0.00000000E+00 0.00000000E+00-6.80455692E-04 0.00000000E+00
19  1 0.00000000E+00 0.00000000E+00 0.00000000E+00 0.00000000E+00 0.00000000E+00
19  2-7.93909708E-02 0.00000000E+00 0.00000000E+00 2.35340727E-01 0.00000000E+00
19  3 0.00000000E+00 1.30689792E-01 0.00000000E+00 0.00000000E+00-3.33411202E+00
19  4 0.00000000E+00 0.00000000E+00-1.02378445E-01 1.02378445E-01 0.00000000E+00
19  5 0.00000000E+00 0.00000000E+00 0.00000000E+00-1.19427293E+00 1.19427293E+00
19  6 0.00000000E+00 0.00000000E+00 0.00000000E+00 0.00000000E+00-8.07991497E-02
19  7 0.00000000E+00 0.00000000E+00 0.00000000E+00 0.00000000E+00-3.61344783E-02
19  8 0.00000000E+00 1.44537913E-01 0.00000000E+00 0.00000000E+00-2.26042954E-02
19  9 2.26042954E-02 0.00000000E+00 0.00000000E+00 0.00000000E+00 0.00000000E+00
19 10 5.05320222E-02-3.92335315E-01-1.31526938E+00 8.34956536E-03-9.23370763E-03
19 11 0.00000000E+00-1.44182389E-01 2.52303748E-01 0.00000000E+00-4.05042794E-03
19 12-2.38230079E-03 6.43272873E-03 1.32143254E-02 0.00000000E+00 0.00000000E+00
19 13 5.05320222E-02-3.92335315E-01-1.31526938E+00 8.34956536E-03 9.23370763E-03
19 14 0.00000000E+00-1.44182389E-01-2.52303748E-01 0.00000000E+00-4.05042794E-03
19 15-2.38230079E-03 6.43272873E-03-1.32143254E-02 0.00000000E+00 0.00000000E+00
19 16-1.01064044E-01 7.84670631E-01 2.63053877E+00 2.43428161E-02 0.00000000E+00
19 17 0.00000000E+00-5.81185300E-01 0.00000000E+00 0.00000000E+00 2.54201532E-02
19 18-1.25546958E-02-1.28654575E-02 0.00000000E+00 0.00000000E+00 0.00000000E+00
20  1 0.00000000E+00 0.00000000E+00 0.00000000E+00 0.00000000E+00 0.00000000E+00
20  2 0.00000000E+00-7.93909708E-02 0.00000000E+00 0.00000000E+00 2.35340727E-01
20  3 0.00000000E+00 0.00000000E+00 1.30689792E-01 0.00000000E+00 0.00000000E+00
20  4-3.33411202E+00 0.00000000E+00 0.00000000E+00 0.00000000E+00 0.00000000E+00