 !Step 2: single point gmcpt calculation averaging 3 states
 !        for PH3+ at PH3 structure.
 $system kdiag=3 mwords=100 memddi=1000 parall=.t. $end
 $contrl runtyp=energy ispher=1 $end
 $contrl icut=9 itol=20 inttyp=rysquad qmttol=1.0d-05 nosym=1 $end
 $scf    npunch=2 conv=1.0d-06 dirscf=.t.      $end
 $contrl scftyp=mcscf  mult=2 maxit=200 icharg=1 mplevl=2 $end
 $guess  guess=moread norb=81 purify=.t. $end
 $basis  gbasis=cct $end
 $mcscf  cistep=gmcci fullnr=.t. finci=mos
         acurcy=1.d-6 maxit=100 $end
 $trans  dirtrf=.t. $end
 $mrmp   mrpt=gmcpt rdvecs=.f. $end
 $gmcpt  nmofzc=1 nmodoc=4 nmoact=7 nelact=7 stsym(1)=A
         reftyp=ormas nspace=1 mstart(1)=6 mine(1)=7 maxe(1)=7
         kstate(1)=1,1,1
         wstate(1)=1,1,1
         iwgt=0 thrwgt=-1.0 krot=.f. kszdoe=.f. knospn=.f.
         thrde=-1.0 edshft=0.02 $end
 --- Semi-canonical MOs --- generated at Wed Oct 25 14:28:45 2023
 $VEC   
 1  1 1.00014026E+00 2.12288233E-04 2.35259310E-04-9.69987525E-04-1.56061240E-04
 1  2 2.24704850E-11 1.08104557E-11 0.00000000E+00 5.27654619E-11 2.51315613E-11
 1  3 0.00000000E+00 0.00000000E+00 0.00000000E+00 0.00000000E+00 4.84975230E-11
 1  4 0.00000000E+00 0.00000000E+00 5.97478244E-06 5.97478789E-06-1.19495703E-05
 1  5 0.00000000E+00 0.00000000E+00 0.00000000E+00 1.39699393E-05 1.39699024E-05
 1  6-2.79398417E-05-1.35074126E-11 0.00000000E+00 0.00000000E+00 1.67531508E-05
 1  7 0.00000000E+00 0.00000000E+00 0.00000000E+00 0.00000000E+00-2.24766870E-05
 1  8 0.00000000E+00-2.30057367E-11 0.00000000E+00 0.00000000E+00-1.16832778E-06
 1  9-1.16830452E-06 2.33663231E-06 0.00000000E+00 0.00000000E+00 0.00000000E+00
 1 10 5.17768380E-06-4.27232609E-05 3.09734201E-05 1.40215208E-06-2.42859932E-06
 1 11 0.00000000E+00-1.09877526E-05 1.90313097E-05 0.00000000E+00-9.67969422E-07
 1 12 5.86741647E-06-4.89944705E-06-6.83538926E-06 0.00000000E+00 0.00000000E+00
 1 13 5.17767961E-06-4.27232159E-05 3.09734322E-05 1.40215234E-06 2.42859905E-06
 1 14 0.00000000E+00-1.09877418E-05-1.90312875E-05 0.00000000E+00-9.67970307E-07
 1 15 5.86741940E-06-4.89944909E-06 6.83539284E-06 0.00000000E+00 0.00000000E+00
 1 16 5.17766201E-06-4.27232844E-05 3.09734099E-05-2.80427679E-06 0.00000000E+00
 1 17 0.00000000E+00 2.19754740E-05 0.00000000E+00 0.00000000E+00 9.28508813E-06
 1 18-4.38566624E-06-4.89942190E-06 0.00000000E+00 0.00000000E+00 0.00000000E+00
 2  1-5.33920981E-04 9.53778939E-01-4.19196922E-03 6.30276435E-02 2.61399638E-03
 2  2 6.28974787E-11 9.96812470E-11-0.00000000E+00 1.02891712E-10 2.05126344E-10
 2  3-0.00000000E+00-0.00000000E+00-2.38713249E-11-0.00000000E+00 6.64911093E-11
 2  4 6.27034786E-11-0.00000000E+00 9.65793100E-05 9.65794243E-05-1.93158734E-04
 2  5-2.69954090E-11-0.00000000E+00-0.00000000E+00-1.78396631E-04-1.78396545E-04
 2  6 3.56793176E-04-1.04925850E-10-0.00000000E+00-0.00000000E+00 1.01826168E-04
 2  7 2.20823880E-11-0.00000000E+00-0.00000000E+00-0.00000000E+00-1.36614181E-04
 2  8-0.00000000E+00 4.29651361E-11-3.02789776E-11-0.00000000E+00 2.38139809E-04
 2  9 2.38139912E-04-4.76279721E-04-0.00000000E+00-0.00000000E+00-0.00000000E+00
 2 10-1.82868827E-04 1.39177203E-04-5.45492220E-04-2.22000393E-05 3.84515667E-05
 2 11-0.00000000E+00 8.78319684E-05-1.52129428E-04-0.00000000E+00 2.62487215E-06
 2 12 1.66377798E-05-1.92626520E-05-1.40128434E-05-0.00000000E+00-0.00000000E+00
 2 13-1.82868857E-04 1.39177546E-04-5.45492122E-04-2.22000380E-05-3.84515685E-05
 2 14-0.00000000E+00 8.78320531E-05 1.52129598E-04-0.00000000E+00 2.62486939E-06
 2 15 1.66377985E-05-1.92626679E-05 1.40128688E-05-0.00000000E+00-0.00000000E+00
 2 16-1.82868823E-04 1.39177462E-04-5.45492124E-04 4.44000308E-05-0.00000000E+00
 2 17-0.00000000E+00-1.75663986E-04 1.22198087E-11-0.00000000E+00 2.36441248E-05
 2 18-4.38149818E-06-1.92626267E-05-0.00000000E+00-0.00000000E+00-0.00000000E+00
 3  1-3.91254996E-11-2.68097902E-10-3.74276145E-10 8.41221566E-11 3.01838473E-10
 3  2 9.55630414E-01-6.77304798E-02-0.00000000E+00-3.35804975E-03 2.38002423E-04
 3  3-0.00000000E+00 7.92064143E-02-5.61376906E-03-0.00000000E+00 1.22299627E-03
 3  4-8.66800647E-05-0.00000000E+00 2.55385431E-04-2.55385390E-04-4.54749179E-11
 3  5 2.09006390E-05-0.00000000E+00-0.00000000E+00-1.47041813E-03 1.47041813E-03
 3  6-0.00000000E+00-1.20338471E-04-0.00000000E+00-0.00000000E+00-4.54891001E-05
 3  7 3.22404789E-06-0.00000000E+00 1.44183683E-06-0.00000000E+00-2.03432339E-05
 3  8-0.00000000E+00 8.13732659E-05-5.76735097E-06-0.00000000E+00-2.72917807E-04
 3  9 2.72917820E-04-1.40457098E-11-2.23354874E-05-0.00000000E+00-0.00000000E+00
 3 10-3.31378577E-04-1.97724982E-03 1.95332508E-04 8.58818099E-05 2.95789713E-05
 3 11-0.00000000E+00-4.57521491E-04 6.79870282E-04-0.00000000E+00 3.85053646E-05
 3 12-6.56180184E-06-3.19435628E-05-1.75536512E-05-0.00000000E+00-0.00000000E+00
 3 13-2.58914540E-04-1.54487569E-03 1.52618269E-04 9.05768071E-05-3.66641974E-05
 3 14-0.00000000E+00-3.72293064E-04-5.22643708E-04-0.00000000E+00 3.72241243E-05
 3 15-1.22658015E-05-2.49583228E-05 1.84744032E-05-0.00000000E+00-0.00000000E+00
 3 16 5.90293152E-04 3.52212552E-03-3.47951157E-04 3.08610755E-05-7.60859588E-06
 3 17-0.00000000E+00-1.45631512E-03 4.80331529E-06-0.00000000E+00-3.18325283E-05
 3 18-2.50693528E-05 5.69018811E-05 2.67176161E-06-0.00000000E+00-0.00000000E+00
 4  1 0.00000000E+00-6.48707191E-11-6.52895279E-11 2.82470501E-11 2.68322608E-11
 4  2 6.77304799E-02 9.55630414E-01 0.00000000E+00-2.38002230E-04-3.35804974E-03
 4  3 0.00000000E+00 5.61376903E-03 7.92064143E-02 0.00000000E+00 8.66801358E-05
 4  4 1.22299628E-03 0.00000000E+00 1.81005060E-05-1.81005077E-05 0.00000000E+00
 4  5-2.94893672E-04 0.00000000E+00 0.00000000E+00-1.04216081E-04 1.04216075E-04
 4  6 0.00000000E+00 1.69789260E-03 0.00000000E+00 0.00000000E+00-3.22403898E-06
 4  7-4.54890174E-05 0.00000000E+00-2.03433428E-05 0.00000000E+00-1.44181844E-06
 4  8 0.00000000E+00 5.76732063E-06 8.13732639E-05 0.00000000E+00-1.93431019E-05
 4  9 1.93431024E-05 0.00000000E+00 3.15138349E-04 0.00000000E+00 0.00000000E+00
 4 10 4.90290282E-04 2.92543461E-03-2.89003876E-04 3.93748579E-05 5.23313218E-05
 4 11 0.00000000E+00 5.71850474E-04-1.06656497E-03 0.00000000E+00-6.35503966E-06
 4 12-4.09069659E-05 4.72620055E-05-7.77231579E-06 0.00000000E+00 0.00000000E+00
 4 13-5.32127430E-04-3.17506571E-03 3.13664994E-04-2.68683245E-05 4.76363248E-05
 4 14 0.00000000E+00-6.30663666E-04-1.15179328E-03 0.00000000E+00 1.17223785E-05
 4 15 3.95725681E-05-5.12949465E-05-5.21880711E-06 0.00000000E+00 0.00000000E+00
 4 16 4.18371487E-05 2.49631149E-04-2.46611430E-05 2.18728012E-06 1.07352045E-04
 4 17 0.00000000E+00-1.03216522E-04-6.77714182E-05 0.00000000E+00-2.25614797E-06
 4 18-1.77678867E-06 4.03293664E-06-3.76967172E-05 0.00000000E+00 0.00000000E+00
 5  1-0.00000000E+00-0.00000000E+00-0.00000000E+00-0.00000000E+00-0.00000000E+00
 5  2-0.00000000E+00-0.00000000E+00 9.61345591E-01-0.00000000E+00-0.00000000E+00
 5  3-7.33824959E-05-0.00000000E+00-0.00000000E+00 7.55142226E-02-0.00000000E+00
 5  4-0.00000000E+00 1.28966991E-03-0.00000000E+00-0.00000000E+00-0.00000000E+00
 5  5-0.00000000E+00-3.10058997E-11-0.00000000E+00-0.00000000E+00-0.00000000E+00
 5  6-0.00000000E+00-0.00000000E+00-9.97080641E-11-0.00000000E+00-0.00000000E+00
 5  7-0.00000000E+00-2.54804255E-04-0.00000000E+00 1.70927821E-04-0.00000000E+00
 5  8 1.70927960E-04-0.00000000E+00-0.00000000E+00-0.00000000E+00-0.00000000E+00
 5  9-0.00000000E+00-0.00000000E+00-0.00000000E+00 2.69293053E-11-0.00000000E+00
 5 10-0.00000000E+00-0.00000000E+00-0.00000000E+00-0.00000000E+00-0.00000000E+00
 5 11 4.14902929E-05-0.00000000E+00-0.00000000E+00 1.17830437E-04-0.00000000E+00
 5 12-0.00000000E+00-0.00000000E+00-0.00000000E+00-1.14001861E-05 1.97456498E-05
 5 13-0.00000000E+00-0.00000000E+00-0.00000000E+00-0.00000000E+00-0.00000000E+00
 5 14 4.14902929E-05-0.00000000E+00-0.00000000E+00 1.17830437E-04-0.00000000E+00
 5 15-0.00000000E+00-0.00000000E+00-0.00000000E+00-1.14001860E-05-1.97456498E-05
 5 16-0.00000000E+00-0.00000000E+00-0.00000000E+00-0.00000000E+00-0.00000000E+00
 5 17 4.14902712E-05-0.00000000E+00-0.00000000E+00 1.17830505E-04-0.00000000E+00
 5 18-0.00000000E+00-0.00000000E+00-0.00000000E+00 2.28004142E-05-0.00000000E+00
 6  1 1.01218328E-03 2.64195680E-03 5.47711873E-01 5.73350745E-02 2.19828300E-01
 6  2 1.90876535E-10 2.50799860E-10 0.00000000E+00-2.18163517E-10 6.07902003E-10
 6  3 0.00000000E+00-1.49699895E-10-7.10648432E-11 0.00000000E+00 4.56533413E-10
 6  4 2.02097516E-10 0.00000000E+00 1.18878230E-02 1.18878235E-02-2.37756465E-02
 6  5-7.67552364E-11 0.00000000E+00 0.00000000E+00 5.65254465E-03 5.65254486E-03
 6  6-1.13050895E-02-3.25544826E-10 0.00000000E+00 0.00000000E+00 1.17495389E-02
 6  7 4.28826806E-11 0.00000000E+00 2.58468059E-11 0.00000000E+00-1.57636606E-02
 6  8 0.00000000E+00 0.00000000E+00-8.33799591E-11 0.00000000E+00 2.06725095E-03
 6  9 2.06725106E-03-4.13450202E-03 1.74332681E-11 0.00000000E+00 0.00000000E+00
 6 10 8.04739036E-02 1.15777786E-01 3.81639089E-03 3.95551601E-03-6.85115493E-03
 6 11 0.00000000E+00 8.03790748E-03-1.39220639E-02 0.00000000E+00 4.17215396E-05
 6 12 1.94019775E-03-1.98191929E-03-1.89847628E-03 0.00000000E+00 0.00000000E+00
 6 13 8.04739036E-02 1.15777787E-01 3.81639117E-03 3.95551600E-03 6.85115490E-03
 6 14 0.00000000E+00 8.03790773E-03 1.39220643E-02 0.00000000E+00 4.17215244E-05
 6 15 1.94019780E-03-1.98191933E-03 1.89847635E-03 0.00000000E+00 0.00000000E+00
 6 16 8.04739039E-02 1.15777787E-01 3.81639049E-03-7.91103227E-03 0.00000000E+00
 6 17 0.00000000E+00-1.60758148E-02 2.46836363E-11 0.00000000E+00 2.88943611E-03
 6 18-9.07516846E-04-1.98191926E-03 0.00000000E+00 0.00000000E+00 0.00000000E+00
 7  1-8.11427366E-11-5.10355724E-10-3.59701884E-10 2.49849939E-10 3.56776514E-10
 7  2-3.64960410E-02-5.38861565E-03 0.00000000E+00 3.71994732E-01 5.49247697E-02
 7  3 0.00000000E+00 1.14825653E-01 1.69539296E-02 0.00000000E+00 1.06267687E-01
 7  4 1.56903519E-02 0.00000000E+00 4.37386294E-02-4.37386295E-02 1.10889342E-10
 7  5-7.45703177E-03 0.00000000E+00 0.00000000E+00 2.69307792E-02-2.69307789E-02
 7  6-2.53026790E-10-4.59144880E-03 0.00000000E+00 0.00000000E+00 8.30515732E-03
 7  7 1.22625085E-03 0.00000000E+00 5.48396051E-04 0.00000000E+00 3.71417929E-03
 7  8 0.00000000E+00-1.48567171E-02-2.19358421E-03 0.00000000E+00 8.42737992E-03
 7  9-8.42737983E-03-9.05902475E-11-1.43679032E-03 0.00000000E+00 0.00000000E+00
 7 10-6.25669994E-02-1.05573590E-01-1.96845988E-02-9.32124162E-04 5.28392510E-03
 7 11 0.00000000E+00 6.65569184E-05 1.13622551E-02 0.00000000E+00 1.43625471E-03
 7 12-2.42946626E-03 9.93211545E-04 5.95852906E-04 0.00000000E+00 0.00000000E+00
 7 13-1.05564228E-01-1.78125764E-01-3.32122283E-02-2.91424551E-03-8.14059557E-03
 7 14 0.00000000E+00-4.08389435E-03-1.67479406E-02 0.00000000E+00 1.38797327E-03
 7 15-3.06373865E-03 1.67576538E-03-1.69553624E-03 0.00000000E+00 0.00000000E+00
 7 16 1.68131227E-01 2.83699354E-01 5.28968268E-02-1.35491607E-02 2.88232220E-04
 7 17 0.00000000E+00-2.63528122E-02 9.01553520E-04 0.00000000E+00 5.13238857E-03
 7 18-2.46341152E-03-2.66897705E-03-2.56846177E-04 0.00000000E+00 0.00000000E+00
 8  1-7.71409244E-11-5.42255519E-10-7.66004238E-10 3.20855101E-10-5.02307986E-10
 8  2 5.38861566E-03-3.64960410E-02 0.00000000E+00-5.49247697E-02 3.71994732E-01
 8  3 0.00000000E+00-1.69539296E-02 1.14825653E-01 0.00000000E+00-1.56903518E-02
 8  4 1.06267687E-01 0.00000000E+00-6.45797899E-03 6.45797891E-03 8.35321487E-11
 8  5-5.05050190E-02 0.00000000E+00 0.00000000E+00-3.97631140E-03 3.97631113E-03
 8  6 2.66684180E-10-3.10969850E-02 0.00000000E+00 0.00000000E+00-1.22625099E-03
 8  7 8.30515735E-03 0.00000000E+00 3.71417925E-03 0.00000000E+00-5.48395858E-04
 8  8 0.00000000E+00 2.19358420E-03-1.48567171E-02 0.00000000E+00-1.24429691E-03
 8  9 1.24429692E-03 0.00000000E+00-9.73110008E-03 0.00000000E+00 0.00000000E+00
 8 10 1.58018145E-01 2.66634857E-01 4.97150862E-02 6.99621721E-03-1.06648961E-02
 8 11 0.00000000E+00 1.43516765E-02-2.03133236E-02 0.00000000E+00-4.49972976E-05
 8 12 2.55343553E-03-2.50843823E-03-3.89313126E-03 0.00000000E+00 0.00000000E+00
 8 13-1.33193683E-01-2.24746839E-01-4.19049055E-02-6.42830333E-03-8.68277473E-03
 8 14 0.00000000E+00-1.37585191E-02-1.61628719E-02 0.00000000E+00-3.71998063E-04
 8 15-1.74236749E-03 2.11436555E-03-3.55480912E-03 0.00000000E+00 0.00000000E+00
 8 16-2.48244615E-02-4.18880166E-02-7.81018048E-03 2.00052437E-03 1.95214050E-03
 8 17 0.00000000E+00 3.89097455E-03 6.10604582E-03 0.00000000E+00-7.57793635E-04
 8 18 3.63721010E-04 3.94072625E-04-1.73956895E-03 0.00000000E+00 0.00000000E+00
 9  1 0.00000000E+00 0.00000000E+00 0.00000000E+00 0.00000000E+00 0.00000000E+00
 9  2 0.00000000E+00 0.00000000E+00 1.46165668E-03 0.00000000E+00 0.00000000E+00
 9  3 5.98304765E-01 0.00000000E+00 0.00000000E+00 1.62444513E-01 0.00000000E+00
 9  4 0.00000000E+00 3.64644223E-01 0.00000000E+00 0.00000000E+00 0.00000000E+00
 9  5 0.00000000E+00 0.00000000E+00 0.00000000E+00 0.00000000E+00 0.00000000E+00
 9  6 0.00000000E+00 0.00000000E+00 6.67137247E-11 0.00000000E+00 0.00000000E+00
 9  7 0.00000000E+00-1.15613077E-02 0.00000000E+00 7.75556089E-03 0.00000000E+00
 9  8 7.75556102E-03 0.00000000E+00 0.00000000E+00 0.00000000E+00 0.00000000E+00
 9  9 0.00000000E+00 0.00000000E+00 0.00000000E+00 7.38745997E-11 0.00000000E+00
 9 10 0.00000000E+00 0.00000000E+00 0.00000000E+00 0.00000000E+00 0.00000000E+00
 9 11 5.07728481E-03 0.00000000E+00 0.00000000E+00 2.41807065E-02 0.00000000E+00
 9 12 0.00000000E+00 0.00000000E+00 0.00000000E+00 1.33503905E-03-2.31235564E-03
 9 13 0.00000000E+00 0.00000000E+00 0.00000000E+00 0.00000000E+00 0.00000000E+00
 9 14 5.07728481E-03 0.00000000E+00 0.00000000E+00 2.41807065E-02 0.00000000E+00
 9 15 0.00000000E+00 0.00000000E+00 0.00000000E+00 1.33503905E-03 2.31235564E-03
 9 16 0.00000000E+00 0.00000000E+00 0.00000000E+00 0.00000000E+00 0.00000000E+00
 9 17 5.07728479E-03 0.00000000E+00 0.00000000E+00 2.41807065E-02 0.00000000E+00
 9 18 0.00000000E+00 0.00000000E+00 0.00000000E+00-2.67007813E-03 0.00000000E+00
10  1 1.20381282E-02 1.12461139E-01 5.73935842E-01 9.33930120E-02 4.16457702E-01
10  2-4.41398516E-10-7.06562702E-11 0.00000000E+00-1.13917169E-09-1.66478409E-10
10  3 0.00000000E+00 4.63772552E-11 2.01897563E-11 0.00000000E+00-1.05103048E-09
10  4-2.98613161E-11 0.00000000E+00-9.22211797E-02-9.22211799E-02 1.84442360E-01
10  5 0.00000000E+00 0.00000000E+00 0.00000000E+00-9.47486528E-02-9.47486517E-02
10  6 1.89497304E-01 8.39907502E-11 0.00000000E+00 0.00000000E+00-6.31933173E-02
10  7-1.86430919E-11 0.00000000E+00 0.00000000E+00 0.00000000E+00 8.47827319E-02
10  8 0.00000000E+00 1.16974258E-11 1.55575670E-11 0.00000000E+00-1.01662078E-02
10  9-1.01662078E-02 2.03324157E-02 0.00000000E+00 0.00000000E+00 0.00000000E+00
10 10-1.93295279E-01-3.66793267E-01-5.37789028E-02-6.65464422E-03 1.15261816E-02
10 11 0.00000000E+00-2.22159750E-02 3.84791977E-02 0.00000000E+00-1.24684920E-03
10 12-4.88204161E-03 6.12889081E-03 3.63519242E-03 0.00000000E+00 0.00000000E+00
10 13-1.93295279E-01-3.66793267E-01-5.37789028E-02-6.65464422E-03-1.15261817E-02
10 14 0.00000000E+00-2.22159751E-02-3.84791978E-02 0.00000000E+00-1.24684920E-03
10 15-4.88204162E-03 6.12889082E-03-3.63519242E-03 0.00000000E+00 0.00000000E+00
10 16-1.93295279E-01-3.66793264E-01-5.37789037E-02 1.33092881E-02 0.00000000E+00
10 17 0.00000000E+00 4.44319495E-02-3.22387412E-11 0.00000000E+00-6.69963774E-03
10 18 5.70746940E-04 6.12889080E-03 0.00000000E+00 0.00000000E+00 0.00000000E+00
11  1 1.23171127E-10 7.94380038E-10 8.31715453E-10-9.65260808E-11-4.66326080E-09
11  2-1.64820086E-01-7.19338319E-03-0.00000000E+00-8.64128926E-01-3.77139137E-02
11  3-0.00000000E+00-1.42917026E-01-6.23744939E-03-0.00000000E+00-3.42269805E-01
11  4-1.49379732E-02-0.00000000E+00 1.40921272E-01-1.40921272E-01-1.63157096E-10
11  5-7.10180902E-03-0.00000000E+00-0.00000000E+00 3.74356963E-02-3.74356968E-02
11  6 4.66749909E-10-1.88659345E-03-0.00000000E+00-0.00000000E+00 2.00505528E-02
11  7 8.75083334E-04-0.00000000E+00 3.91349171E-04-0.00000000E+00 8.96687953E-03
11  8-0.00000000E+00-3.58675190E-02-1.56539666E-03-0.00000000E+00 1.62228019E-02
11  9-1.62228020E-02 8.47720367E-11-8.17557482E-04-0.00000000E+00-0.00000000E+00
11 10-1.22614432E-01-3.01806275E-01-2.06771213E-02-1.77961192E-02 5.84289308E-03
11 11-0.00000000E+00-7.63406534E-02 3.94922692E-02-0.00000000E+00-5.41651516E-03
11 12 3.10131068E-04 5.10638410E-03 1.15068126E-02-0.00000000E+00-0.00000000E+00
11 13-1.42668026E-01-3.51166701E-01-2.40588664E-02-1.84058147E-02-8.12690072E-03
11 14-0.00000000E+00-8.02849565E-02-5.08825030E-02-0.00000000E+00-4.92775762E-03
11 15-1.01377575E-03 5.94153337E-03-1.24723330E-02-0.00000000E+00-0.00000000E+00
11 16 2.65282461E-01 6.52972976E-01 4.47359918E-02-3.01991633E-02-6.13991946E-04
11 17-0.00000000E+00-1.56579655E-01-2.27925018E-03-0.00000000E+00 2.10981610E-02
11 18-1.00502436E-02-1.10479174E-02 4.23571985E-04-0.00000000E+00-0.00000000E+00
12  1 1.02508196E-11 7.16104862E-11 1.14795878E-10 0.00000000E+00-2.60934228E-10
12  2-7.19338334E-03 1.64820087E-01 0.00000000E+00-3.77139142E-02 8.64128925E-01
12  3 0.00000000E+00-6.23744938E-03 1.42917026E-01 0.00000000E+00-1.49379723E-02
12  4 3.42269805E-01 0.00000000E+00 6.15034700E-03-6.15034699E-03 0.00000000E+00
12  5 1.62721869E-01 0.00000000E+00 0.00000000E+00 1.63383791E-03-1.63383795E-03
12  6 4.92023292E-11 4.32270192E-02 0.00000000E+00 0.00000000E+00 8.75083339E-04
12  7-2.00505525E-02 0.00000000E+00-8.96688000E-03 0.00000000E+00 3.91349149E-04
12  8 0.00000000E+00-1.56539665E-03 3.58675190E-02 0.00000000E+00 7.08025545E-04
12  9-7.08025553E-04 0.00000000E+00 1.87324781E-02 0.00000000E+00 0.00000000E+00
12 10-2.35530323E-01-5.79740313E-01-3.97187296E-02-7.77489276E-03 2.64712790E-02
12 11 0.00000000E+00-4.86052590E-02 1.32462856E-01 0.00000000E+00 5.37365417E-03
12 12-1.51825181E-02 9.80886396E-03 1.15846278E-02 0.00000000E+00 0.00000000E+00
12 13 2.23952375E-01 5.51242057E-01 3.77662787E-02 6.19490095E-03 2.58615834E-02
12 14 0.00000000E+00 4.17695142E-02 1.28518553E-01 0.00000000E+00-5.82511807E-03
12 15 1.51518084E-02-9.32669028E-03 1.05380855E-02 0.00000000E+00 0.00000000E+00
12 16 1.15779482E-02 2.84982553E-02 1.95245104E-03-1.31800778E-03 1.40682348E-02
12 17 0.00000000E+00-6.83373914E-03 5.22238556E-02 0.00000000E+00 9.20804998E-04
12 18-4.38631339E-04-4.82173659E-04-9.70519265E-03 0.00000000E+00 0.00000000E+00
13  1 1.66979497E-02 1.23536413E-01 4.02560314E-01 1.28836762E-02 1.66731582E+00
13  2-2.30252040E-10-1.31727314E-11 0.00000000E+00-5.12826446E-10-5.12839597E-11
13  3 0.00000000E+00-4.23963313E-11 0.00000000E+00 0.00000000E+00 2.95354133E-10
13  4-1.96672732E-10 0.00000000E+00 2.69920536E-02 2.69920537E-02-5.39841074E-02
13  5 1.57111822E-11 0.00000000E+00 0.00000000E+00 1.40429958E-01 1.40429958E-01
13  6-2.80859916E-01 3.18595121E-11 0.00000000E+00 0.00000000E+00 1.57824572E-02
13  7 0.00000000E+00 0.00000000E+00 0.00000000E+00 0.00000000E+00-2.11743882E-02
13  8 0.00000000E+00-1.26673946E-11 0.00000000E+00 0.00000000E+00 7.40278258E-03
13  9 7.40278260E-03-1.48055652E-02 0.00000000E+00 0.00000000E+00 0.00000000E+00
13 10 1.04434379E-02 2.14974063E-01-1.19745605E+00 9.02228993E-03-1.56270646E-02
13 11 0.00000000E+00-3.48663766E-02 6.03903357E-02 0.00000000E+00-1.32729342E-04
13 12-1.63671954E-03 1.76944888E-03 1.50399018E-03 0.00000000E+00 0.00000000E+00
13 13 1.04434379E-02 2.14974064E-01-1.19745605E+00 9.02228992E-03 1.56270646E-02
13 14 0.00000000E+00-3.48663766E-02-6.03903358E-02 0.00000000E+00-1.32729333E-04
13 15-1.63671954E-03 1.76944887E-03-1.50399018E-03 0.00000000E+00 0.00000000E+00
13 16 1.04434378E-02 2.14974063E-01-1.19745605E+00-1.80445798E-02 0.00000000E+00
13 17 0.00000000E+00 6.97327531E-02-1.60315012E-11 0.00000000E+00-2.38871460E-03
13 18 6.19265737E-04 1.76944886E-03 0.00000000E+00 0.00000000E+00 0.00000000E+00
14  1 4.33237733E-11 2.99877374E-10 4.88564776E-10 8.61126158E-11-6.71697144E-10
14  2 1.07742946E-01 9.80467366E-02-0.00000000E+00 4.29571296E-01 3.90912493E-01
14  3-0.00000000E+00 2.56295574E-02 2.33230534E-02-0.00000000E+00 6.26614900E-01
14  4 5.70223374E-01-0.00000000E+00 3.40226573E-02-3.40226572E-02-9.34560769E-11
14  5-3.57504814E-02-0.00000000E+00-0.00000000E+00 1.97257762E-01-1.97257762E-01
14  6-2.71004154E-10-2.07275402E-01-0.00000000E+00-0.00000000E+00 1.07760784E-02
14  7 9.80629697E-03-0.00000000E+00 4.38550921E-03-0.00000000E+00 4.81920882E-03
14  8-0.00000000E+00-1.92768352E-02-1.75420372E-02-0.00000000E+00 7.29420144E-03
14  9-7.29420140E-03-3.43399048E-11-7.66463393E-03-0.00000000E+00-0.00000000E+00
14 10 3.93137079E-03 5.72258882E-02-4.58853790E-01 3.80399466E-03-3.86496050E-03
14 11-0.00000000E+00-1.55300774E-02 2.31228401E-02-0.00000000E+00 1.74015377E-03
14 12-2.79311987E-03 1.05296610E-03 9.37035584E-04-0.00000000E+00-0.00000000E+00
14 13-1.75777755E-02-2.55865920E-01 2.05160729E+00-1.13679275E-02-2.05372909E-02
14 14-0.00000000E+00 6.16180048E-02 1.07900386E-01-0.00000000E+00-1.33114873E-03
14 15 6.03912557E-03-4.70797684E-03 8.48920125E-03-0.00000000E+00-0.00000000E+00
14 16 1.36464049E-02 1.98640033E-01-1.59275350E+00-1.82206281E-02 9.38144219E-04
14 17-0.00000000E+00 9.64634717E-02-1.30058587E-03-0.00000000E+00-8.20087972E-03
14 18 4.54586902E-03 3.65501070E-03-1.23865563E-03-0.00000000E+00-0.00000000E+00
15  1-3.52309118E-11-2.15897349E-10-3.21278861E-10-9.41367469E-11 1.09709959E-09
15  2-9.80467370E-02 1.07742946E-01-0.00000000E+00-3.90912494E-01 4.29571295E-01
15  3-0.00000000E+00-2.33230533E-02 2.56295575E-02-0.00000000E+00-5.70223373E-01
15  4 6.26614899E-01-0.00000000E+00-3.09608252E-02 3.09608251E-02 6.58518629E-11
15  5-3.92859805E-02-0.00000000E+00-0.00000000E+00-1.79505764E-01 1.79505764E-01
15  6 1.55650658E-10-2.27773643E-01-0.00000000E+00-0.00000000E+00-9.80629691E-03
15  7 1.07760784E-02-0.00000000E+00 4.81920875E-03-0.00000000E+00-4.38550938E-03
15  8-0.00000000E+00 1.75420373E-02-1.92768350E-02-0.00000000E+00-6.63776771E-03
15  9 6.63776768E-03 2.79838916E-11-8.42261831E-03-0.00000000E+00-0.00000000E+00
15 10 1.80272888E-02 2.62409135E-01-2.10407268E+00 1.17777776E-02-2.09937018E-02
15 11-0.00000000E+00-6.33589197E-02 1.10564343E-01-0.00000000E+00 1.50141903E-03
15 12-6.32979213E-03 4.82837310E-03 8.61547472E-03-0.00000000E+00-0.00000000E+00
15 13-5.60897753E-03-8.16454963E-02 6.54657301E-01-4.89455273E-03-5.82177968E-03
15 14-0.00000000E+00 2.14186253E-02 3.34162605E-02-0.00000000E+00-1.87361610E-03
15 15 3.37590719E-03-1.50229109E-03 1.74295800E-03-0.00000000E+00-0.00000000E+00
15 16-1.24183115E-02-1.80763640E-01 1.44941538E+00 1.65808825E-02 1.03092082E-03
15 17-0.00000000E+00-8.77823462E-02-1.42920578E-03-0.00000000E+00 7.46285045E-03
15 18-4.13676847E-03-3.32608198E-03-1.36115089E-03-0.00000000E+00-0.00000000E+00
16  1 0.00000000E+00 0.00000000E+00 0.00000000E+00 0.00000000E+00 0.00000000E+00
16  2 0.00000000E+00 0.00000000E+00 1.61540080E-10 0.00000000E+00 0.00000000E+00
16  3 2.37814582E-10 0.00000000E+00 0.00000000E+00 1.96629466E-11 0.00000000E+00
16  4 0.00000000E+00-3.86269432E-10 0.00000000E+00 0.00000000E+00 0.00000000E+00
16  5 0.00000000E+00 1.26000389E-01 6.66931916E-05 0.00000000E+00 0.00000000E+00
16  6 0.00000000E+00 0.00000000E+00 8.04743626E-01 4.25958375E-04 0.00000000E+00
16  7 0.00000000E+00 0.00000000E+00 0.00000000E+00 4.45864699E-03 0.00000000E+00
16  8-4.45864697E-03 0.00000000E+00 0.00000000E+00-2.72509756E-06 0.00000000E+00
16  9 0.00000000E+00 0.00000000E+00 0.00000000E+00 4.88741425E-02 2.58695435E-05
16 10 0.00000000E+00 0.00000000E+00 0.00000000E+00 0.00000000E+00 0.00000000E+00
16 11-2.48442539E-04 0.00000000E+00 0.00000000E+00-6.20286117E-02 0.00000000E+00
16 12 0.00000000E+00 0.00000000E+00 0.00000000E+00 2.25299920E-03-1.79849859E-03
16 13 0.00000000E+00 0.00000000E+00 0.00000000E+00 0.00000000E+00 0.00000000E+00
16 14-2.48898496E-04 0.00000000E+00 0.00000000E+00-6.21424506E-02 0.00000000E+00
16 15 0.00000000E+00 0.00000000E+00 0.00000000E+00 2.25490556E-03 1.80308594E-03
16 16 0.00000000E+00 0.00000000E+00 0.00000000E+00 0.00000000E+00 0.00000000E+00
16 17 4.97341025E-04 0.00000000E+00 0.00000000E+00 1.24171062E-01 0.00000000E+00
16 18 0.00000000E+00 0.00000000E+00 0.00000000E+00 5.37301607E-03 6.42721551E-07
17  1 0.00000000E+00 0.00000000E+00 0.00000000E+00 0.00000000E+00 0.00000000E+00
17  2 0.00000000E+00 0.00000000E+00 0.00000000E+00 0.00000000E+00 0.00000000E+00
17  3 0.00000000E+00 0.00000000E+00 0.00000000E+00 0.00000000E+00 0.00000000E+00
17  4 0.00000000E+00 0.00000000E+00 0.00000000E+00 0.00000000E+00 0.00000000E+00
17  5 0.00000000E+00-6.66931916E-05 1.26000389E-01 0.00000000E+00 0.00000000E+00
17  6 0.00000000E+00 0.00000000E+00-4.25958375E-04 8.04743627E-01 0.00000000E+00
17  7 0.00000000E+00 0.00000000E+00 0.00000000E+00-2.36000389E-06 0.00000000E+00
17  8 2.36000387E-06 0.00000000E+00 0.00000000E+00-5.14840204E-03 0.00000000E+00
17  9 0.00000000E+00 0.00000000E+00 0.00000000E+00-2.58695436E-05 4.88741425E-02
17 10 0.00000000E+00 0.00000000E+00 0.00000000E+00 0.00000000E+00 0.00000000E+00
17 11 4.30841598E-04 0.00000000E+00 0.00000000E+00 1.07568157E-01 0.00000000E+00
17 12 0.00000000E+00 0.00000000E+00 0.00000000E+00-1.80198530E-03 4.33428136E-03
17 13 0.00000000E+00 0.00000000E+00 0.00000000E+00 0.00000000E+00 0.00000000E+00
17 14-4.30578351E-04 0.00000000E+00 0.00000000E+00-1.07502432E-01 0.00000000E+00
17 15 0.00000000E+00 0.00000000E+00 0.00000000E+00 1.79959923E-03 4.33237501E-03
17 16 0.00000000E+00 0.00000000E+00 0.00000000E+00 0.00000000E+00 0.00000000E+00
17 17-2.63247325E-07 0.00000000E+00 0.00000000E+00-6.57249113E-05 0.00000000E+00
17 18 0.00000000E+00 0.00000000E+00 0.00000000E+00-2.84398791E-06 1.21426441E-03
18  1-0.00000000E+00-0.00000000E+00-0.00000000E+00-0.00000000E+00-0.00000000E+00
18  2-0.00000000E+00-0.00000000E+00-3.26644360E-01-0.00000000E+00-0.00000000E+00
18  3-1.18759457E+00-0.00000000E+00-0.00000000E+00-3.11543762E-02-0.00000000E+00
18  4-0.00000000E+00 1.39860929E+00-0.00000000E+00-0.00000000E+00-0.00000000E+00
18  5-0.00000000E+00 1.54172905E-11-0.00000000E+00-0.00000000E+00-0.00000000E+00
18  6-0.00000000E+00-0.00000000E+00 2.26910313E-10-0.00000000E+00-0.00000000E+00
18  7-0.00000000E+00-3.94869509E-03-0.00000000E+00 2.64886518E-03-0.00000000E+00
18  8 2.64886521E-03-0.00000000E+00-0.00000000E+00-0.00000000E+00-0.00000000E+00
18  9-0.00000000E+00-0.00000000E+00-0.00000000E+00-0.00000000E+00-0.00000000E+00
18 10-0.00000000E+00-0.00000000E+00-0.00000000E+00-0.00000000E+00-0.00000000E+00
18 11 5.37651138E-03-0.00000000E+00-0.00000000E+00-4.55443783E-02-0.00000000E+00
18 12-0.00000000E+00-0.00000000E+00-0.00000000E+00 3.39425672E-05-5.87902638E-05
18 13-0.00000000E+00-0.00000000E+00-0.00000000E+00-0.00000000E+00-0.00000000E+00
18 14 5.37651138E-03-0.00000000E+00-0.00000000E+00-4.55443783E-02-0.00000000E+00
18 15-0.00000000E+00-0.00000000E+00-0.00000000E+00 3.39425671E-05 5.87902637E-05
18 16-0.00000000E+00-0.00000000E+00-0.00000000E+00-0.00000000E+00-0.00000000E+00
18 17 5.37651139E-03-0.00000000E+00-0.00000000E+00-4.55443782E-02-0.00000000E+00
18 18-0.00000000E+00-0.00000000E+00-0.00000000E+00-6.78851569E-05-0.00000000E+00
19  1 2.88832542E-11 1.95778509E-10 4.49319690E-10 3.60775718E-10-5.55010417E-09
19  2-6.88888733E-02-4.21448546E-02-0.00000000E+00-4.35718072E-01-2.66563724E-01
19  3-0.00000000E+00-6.73120749E-02-4.11801995E-02-0.00000000E+00 3.06074967E+00
19  4 1.87250627E+00-0.00000000E+00 3.49999504E-02-3.49999505E-02 1.18502467E-10
19  5-2.47247703E-02-0.00000000E+00-0.00000000E+00 6.13326614E-01-6.13326615E-01
19  6 1.12047465E-09-4.33268034E-01-0.00000000E+00-0.00000000E+00 5.44084062E-02
19  7 3.32859898E-02-0.00000000E+00 1.48859470E-02-0.00000000E+00 2.43321793E-02
19  8-0.00000000E+00-9.73287162E-02-5.95437885E-02-0.00000000E+00 6.40765236E-03
19  9-6.40765238E-03 1.47332300E-11-4.52651311E-03-0.00000000E+00-0.00000000E+00
19 10 1.58677607E-03-1.39066709E-02-6.88435105E-02-3.84699950E-04-7.43764531E-04
19 11-0.00000000E+00 3.38237559E-02 3.04927396E-02-0.00000000E+00 3.64179059E-03
19 12-3.79670035E-03 1.54909756E-04-2.13964061E-03-0.00000000E+00-0.00000000E+00
19 13-5.48034762E-02 4.80303414E-01 2.37769126E+00-8.09335453E-03-1.33441294E-02
19 14-0.00000000E+00 1.82413785E-01 2.73374108E-01-0.00000000E+00-9.82352649E-06
19 15 5.36004136E-03-5.35021783E-03 9.94788200E-03-0.00000000E+00-0.00000000E+00
19 16 5.32167001E-02-4.66396741E-01-2.30884774E+00-1.51512632E-02-3.68056324E-04
19 17-0.00000000E+00 3.18460204E-01 2.32506842E-02-0.00000000E+00-1.11461393E-02
19 18 5.95083132E-03 5.19530800E-03-2.50005734E-03-0.00000000E+00-0.00000000E+00
20  1-1.87745344E-11-1.69983115E-10-4.27693436E-10-3.18182505E-10 4.46396915E-09
20  2 4.21448546E-02-6.88888742E-02-0.00000000E+00 2.66563724E-01-4.35718075E-01
20  3-0.00000000E+00 4.11801994E-02-6.73120747E-02-0.00000000E+00-1.87250627E+00
20  4 3.06074967E+00-0.00000000E+00-2.14122791E-02 2.14122792E-02-9.59568540E-11
20  5-4.04144614E-02-0.00000000E+00-0.00000000E+00-3.75221123E-01 3.75221124E-01
20  6-7.14626372E-10-7.08208571E-01-0.00000000E+00-0.00000000E+00-3.32859895E-02
20  7 5.44084064E-02-0.00000000E+00 2.43321789E-02-0.00000000E+00-1.48859474E-02
20  8-0.00000000E+00 5.95437885E-02-9.73287160E-02-0.00000000E+00-3.92007533E-03
20  9 3.92007534E-03-0.00000000E+00-7.39891967E-03-0.00000000E+00-0.00000000E+00
20 10 6.23654777E-02-5.46577587E-01-2.70577455E+00 8.89353557E-03-1.53681783E-02
20 11-0.00000000E+00-1.87585614E-01 3.22641407E-01-0.00000000E+00 1.87343346E-03
20 12-7.96189558E-03 6.08846212E-03 1.00790273E-02-0.00000000E+00-0.00000000E+00
20 13-2.98085504E-02 2.61245262E-01 1.29326704E+00-3.70682910E-03-7.65952369E-03
20 14-0.00000000E+00 5.52957524E-02 1.74051377E-01-0.00000000E+00-4.09539927E-03
20 15 7.00547442E-03-2.91007515E-03 2.68411943E-03-0.00000000E+00-0.00000000E+00
20 16-3.25569272E-02 2.85332324E-01 1.41250751E+00 9.26924394E-03-6.01615215E-04