 !#############################################################################
 !                   D_3h RHF GEOMETRY OPTIMIZATION AND HESSIAN TEMPLATE
 ! ---------------------------------------------------------------------------
 ! Replace the symmetry-correct coordinates, should only be two atoms.  
 ! The hydrogen or fluorine should have only one non-zero x,y,z coordinate.
 ! 
 ! Basis set?   gbasis=ccd for 2nd row, 
 !                         cct 3rd/4th,
 !                   SPKrTZP for heavy,
 !                   SPKrTZC beyond 4th
 ! 
 !#############################################################################
 $system kdiag=3 mwords=250 memddi=8000 parall=.t. $end
 $contrl runtyp=energy ispher=1 $end
 $contrl icut=9 itol=20 inttyp=rysquad qmttol=1.0d-05 nosym=1 $end
 $contrl scftyp=mcscf  mult=2 maxit=200 icharg=1 mplevl=2 $end
 $scf    npunch=2 conv=1.0d-06 dirscf=.t. $end
 $force  method=seminum $end
 $trans  dirtrf=.t. $end
 $statpt hssend=.t. $end
 $basis  gbasis=ccd $end
 !#############################################################################
 !
 !                       TURN ON THIS SECTION IF HEAVY ATOM
 !
 !#############################################################################
 !
 -contrl relwfn=LUT-IOTC $end
 -scf  diis=.t. soscf=.f. ethrsh=10.0 $end
 -guess iorder(25)=27,25,26 $end
 -gmcpt nsolut=100 $end
 !
 !#############################################################################
 !
 !       TURN ON THIS SECTION IF GMCPT, CHANGE runtyp=energy, scftyp=mcscf
 !
 !#############################################################################
 $guess  guess=moread norb=24 purify=.t. norder=1 $end
 $mcscf  cistep=gmcci fullnr=.t. finci=mos
         acurcy=1.d-6 maxit=100 $end
 $mrmp   mrpt=gmcpt rdvecs=.f. $end
 $gmcpt  nmofzc=0 nmodoc=1 nmoact=6 nelact=7 stsym(1)=A
         reftyp=ormas nspace=1 mstart(1)=2 mine(1)=7 maxe(1)=7
         kstate(1)=1,1,1
         wstate(1)=1,1,1
         iwgt=0 thrwgt=-1.0 krot=.f. kszdoe=.f. knospn=.f.
         thrde=-1.0 edshft=0.02 $end
 !if SOC: transt $end, add knospn=.t. 
 !#############################################################################
 !
 !             TURN OFF THIS SECTION IF temp.inp, change nosym=1, add C1
 !
 !#############################################################################
 $data
 H2O geometry optmization
 C1
 O           8.0   0.0000000000   0.0000000000  -0.0429116571
 H           1.0   0.8105673361  -0.0000000000   0.5499540835
 H           1.0  -0.8105673361   0.0000000000   0.5499540835
 $end
OPTIMIZED ROHF     MO-S --- GENERATED AT Thu Jan 25 16:55:46 2024
E=      -75.7864001731, E(NUC)=    8.7574652854
 $VEC   
 1  1 1.00082317E+00 8.33616575E-04-3.09461488E-03 0.00000000E+00 0.00000000E+00
 1  2 1.59445900E-03 0.00000000E+00 0.00000000E+00-6.21233090E-04 2.35485874E-04
 1  3-3.97576094E-04 1.62090220E-04 0.00000000E+00 0.00000000E+00 0.00000000E+00
 1  4-7.86787934E-07 4.33518711E-04 4.22486679E-04 0.00000000E+00 3.67871343E-04
 1  5-7.86787934E-07 4.33518711E-04-4.22486679E-04 0.00000000E+00 3.67871343E-04
 2  1 6.91711850E-03 4.87634011E-01 3.92880188E-01 0.00000000E+00 0.00000000E+00
 2  2 8.22451590E-02 0.00000000E+00 0.00000000E+00 1.72064158E-03 2.89463558E-03
 2  3-5.16756611E-03 2.27293053E-03 0.00000000E+00 0.00000000E+00 0.00000000E+00
 2  4 1.67300666E-01-6.12473859E-03-3.87472178E-02 0.00000000E+00-2.07127108E-02
 2  5 1.67300666E-01-6.12473859E-03 3.87472178E-02 0.00000000E+00-2.07127108E-02
 3  1 0.00000000E+00 0.00000000E+00 0.00000000E+00-5.51333260E-01 0.00000000E+00
 3  2 0.00000000E+00-2.35625777E-01 0.00000000E+00 0.00000000E+00 0.00000000E+00
 3  3 0.00000000E+00 0.00000000E+00 0.00000000E+00-2.54696634E-02 0.00000000E+00
 3  4-2.99242267E-01-2.00535556E-02 3.28336813E-02 0.00000000E+00 3.64195431E-02
 3  5 2.99242267E-01 2.00535556E-02 3.28336813E-02 0.00000000E+00-3.64195431E-02
 4  1 6.68739641E-03 1.53368478E-01 2.69615057E-01 0.00000000E+00 0.00000000E+00
 4  2-6.13859921E-01 0.00000000E+00 0.00000000E+00-3.37891413E-01 7.46904207E-03
 4  3 1.21812458E-02-1.96502879E-02 0.00000000E+00 0.00000000E+00 0.00000000E+00
 4  4-1.83048865E-01-1.74117606E-02 3.84655747E-02 0.00000000E+00-2.90694278E-03
 4  5-1.83048865E-01-1.74117606E-02-3.84655747E-02 0.00000000E+00-2.90694278E-03
 5  1 0.00000000E+00 0.00000000E+00 0.00000000E+00 0.00000000E+00 7.18584206E-01
 5  2 0.00000000E+00 0.00000000E+00 4.06190459E-01 0.00000000E+00 0.00000000E+00
 5  3 0.00000000E+00 0.00000000E+00 0.00000000E+00 0.00000000E+00 2.05226070E-02
 5  4 0.00000000E+00 0.00000000E+00 0.00000000E+00 2.24119160E-02 0.00000000E+00
 5  5 0.00000000E+00 0.00000000E+00 0.00000000E+00 2.24119160E-02 0.00000000E+00
 6  1-2.01102073E-02 1.43438648E-01 8.37965170E-01 0.00000000E+00 0.00000000E+00
 6  2 2.18139176E-01 0.00000000E+00 0.00000000E+00 2.77869964E-01-6.68639278E-03
 6  3 8.08494345E-04 5.87789843E-03 0.00000000E+00 0.00000000E+00 0.00000000E+00
 6  4-1.56707568E-01-7.34001056E-01-7.57580098E-03 0.00000000E+00 1.18905882E-03
 6  5-1.56707568E-01-7.34001056E-01 7.57580098E-03 0.00000000E+00 1.18905882E-03
 7  1 0.00000000E+00 0.00000000E+00 0.00000000E+00 3.39004921E-01 0.00000000E+00
 7  2 0.00000000E+00 5.80991169E-01 0.00000000E+00 0.00000000E+00 0.00000000E+00
 7  3 0.00000000E+00 0.00000000E+00 0.00000000E+00-1.73374898E-03 0.00000000E+00
 7  4-1.74412673E-01-1.18438798E+00-7.50900212E-04 0.00000000E+00-9.43510936E-03
 7  5 1.74412673E-01 1.18438798E+00-7.50900212E-04 0.00000000E+00 9.43510936E-03
 8  1 0.00000000E+00 0.00000000E+00 0.00000000E+00 2.61366771E-01 0.00000000E+00
 8  2 0.00000000E+00 2.86217110E-01 0.00000000E+00 0.00000000E+00 0.00000000E+00
 8  3 0.00000000E+00 0.00000000E+00 0.00000000E+00-1.12436933E-01 0.00000000E+00
 8  4-9.36805887E-01 9.06511781E-01-3.85731850E-02 0.00000000E+00-1.28309648E-01
 8  5 9.36805887E-01-9.06511781E-01-3.85731850E-02 0.00000000E+00 1.28309648E-01
 9  1 6.47275190E-02 2.25744282E-01-3.04096956E-01 0.00000000E+00 0.00000000E+00
 9  2 3.05000628E-01 0.00000000E+00 0.00000000E+00-1.13735078E-02-9.52297194E-02
 9  3 8.56651456E-02 9.56457384E-03 0.00000000E+00 0.00000000E+00 0.00000000E+00
 9  4-8.50481762E-01 6.44162180E-01-2.20765328E-01 0.00000000E+00-2.11689776E-02
 9  5-8.50481762E-01 6.44162180E-01 2.20765328E-01 0.00000000E+00-2.11689776E-02
10  1 2.32744741E-03 1.01016726E-01 5.82853912E-01 0.00000000E+00 0.00000000E+00
10  2-7.50902632E-01 0.00000000E+00 0.00000000E+00 1.19952146E+00-2.53065766E-02
10  3 3.55864604E-03 2.17479306E-02 0.00000000E+00 0.00000000E+00 0.00000000E+00
10  4-4.25634748E-01-1.21329693E-01 5.60081107E-02 0.00000000E+00 2.59228269E-01
10  5-4.25634748E-01-1.21329693E-01-5.60081107E-02 0.00000000E+00 2.59228269E-01
11  1 0.00000000E+00 0.00000000E+00 0.00000000E+00 0.00000000E+00 9.02570579E-01
11  2 0.00000000E+00 0.00000000E+00-1.02849424E+00 0.00000000E+00 0.00000000E+00
11  3 0.00000000E+00 0.00000000E+00 0.00000000E+00 0.00000000E+00-3.10492448E-03
11  4 0.00000000E+00 0.00000000E+00 0.00000000E+00-5.71381891E-02 0.00000000E+00
11  5 0.00000000E+00 0.00000000E+00 0.00000000E+00-5.71381891E-02 0.00000000E+00
12  1 0.00000000E+00 0.00000000E+00 0.00000000E+00 7.27636819E-01 0.00000000E+00
12  2 0.00000000E+00-1.73952630E+00 0.00000000E+00 0.00000000E+00 0.00000000E+00
12  3 0.00000000E+00 0.00000000E+00 0.00000000E+00-1.16739557E-02 0.00000000E+00
12  4 3.35750507E-01 8.08002772E-01-3.02499120E-01 0.00000000E+00-1.10652155E-01
12  5-3.35750507E-01-8.08002772E-01-3.02499120E-01 0.00000000E+00 1.10652155E-01
13  1 0.00000000E+00 0.00000000E+00 0.00000000E+00 0.00000000E+00 0.00000000E+00
13  2 0.00000000E+00 0.00000000E+00 0.00000000E+00 0.00000000E+00 0.00000000E+00
13  3 0.00000000E+00 0.00000000E+00-1.55961344E-01 0.00000000E+00 0.00000000E+00
13  4 0.00000000E+00 0.00000000E+00 0.00000000E+00-6.73769590E-01 0.00000000E+00
13  5 0.00000000E+00 0.00000000E+00 0.00000000E+00 6.73769590E-01 0.00000000E+00
14  1 2.69000273E-01 6.65911820E-01-7.54549161E-01 0.00000000E+00 0.00000000E+00
14  2-1.80543030E-01 0.00000000E+00 0.00000000E+00 6.79305852E-01 9.26010395E-02
14  3 5.21168404E-02-1.44717880E-01 0.00000000E+00 0.00000000E+00 0.00000000E+00
14  4-2.72706873E-01 2.46650065E-01 3.01053360E-01 0.00000000E+00-5.24060291E-01
14  5-2.72706873E-01 2.46650065E-01-3.01053360E-01 0.00000000E+00-5.24060291E-01
15  1 0.00000000E+00 0.00000000E+00 0.00000000E+00 0.00000000E+00-6.78852611E-02
15  2 0.00000000E+00 0.00000000E+00 6.58948067E-01 0.00000000E+00 0.00000000E+00
15  3 0.00000000E+00 0.00000000E+00 0.00000000E+00 0.00000000E+00-1.83668482E-01
15  4 0.00000000E+00 0.00000000E+00 0.00000000E+00-7.53105587E-01 0.00000000E+00
15  5 0.00000000E+00 0.00000000E+00 0.00000000E+00-7.53105587E-01 0.00000000E+00
16  1-7.25792691E-01-1.59107352E+00 2.82100824E+00 0.00000000E+00 0.00000000E+00
16  2-1.64404522E-02 0.00000000E+00 0.00000000E+00 9.71920446E-01-2.74228378E-02
16  3 1.66989475E-01-1.39566637E-01 0.00000000E+00 0.00000000E+00 0.00000000E+00
16  4-7.20187505E-01-3.80166793E-01 3.64108059E-01 0.00000000E+00-1.04257892E-01
16  5-7.20187505E-01-3.80166793E-01-3.64108059E-01 0.00000000E+00-1.04257892E-01
17  1 0.00000000E+00 0.00000000E+00 0.00000000E+00 1.07822477E-01 0.00000000E+00
17  2 0.00000000E+00-9.71006175E-01 0.00000000E+00 0.00000000E+00 0.00000000E+00
17  3 0.00000000E+00 0.00000000E+00 0.00000000E+00 2.62909000E-02 0.00000000E+00
17  4 4.09339183E-01 1.05768827E-01 4.28880781E-01 0.00000000E+00-6.78576483E-01
17  5-4.09339183E-01-1.05768827E-01 4.28880781E-01 0.00000000E+00 6.78576483E-01
18  1 0.00000000E+00 0.00000000E+00 0.00000000E+00 7.49279507E-01 0.00000000E+00
18  2 0.00000000E+00 2.17856058E-01 0.00000000E+00 0.00000000E+00 0.00000000E+00
18  3 0.00000000E+00 0.00000000E+00 0.00000000E+00-1.40515182E-01 0.00000000E+00
18  4-2.05092884E-01-3.71213179E-01 6.87064951E-01 0.00000000E+00 5.54337543E-01
18  5 2.05092884E-01 3.71213179E-01 6.87064951E-01 0.00000000E+00-5.54337543E-01
19  1-1.62206428E-01-4.94546120E-01-9.22571507E-01 0.00000000E+00 0.00000000E+00
19  2-5.75449966E-01 0.00000000E+00 0.00000000E+00-2.32189511E-01 1.56789909E-01
19  3-2.25939526E-01 6.91496174E-02 0.00000000E+00 0.00000000E+00 0.00000000E+00
19  4 4.08606396E-01 2.02249754E-01-7.68294631E-01 0.00000000E+00-4.89838321E-01
19  5 4.08606396E-01 2.02249754E-01 7.68294631E-01 0.00000000E+00-4.89838321E-01
20  1 0.00000000E+00 0.00000000E+00 0.00000000E+00 0.00000000E+00 3.31372036E-02
20  2 0.00000000E+00 0.00000000E+00-2.84331362E-01 0.00000000E+00 0.00000000E+00
20  3 0.00000000E+00 0.00000000E+00 0.00000000E+00 0.00000000E+00-1.02360696E+00
20  4 0.00000000E+00 0.00000000E+00 0.00000000E+00 3.71170704E-01 0.00000000E+00
20  5 0.00000000E+00 0.00000000E+00 0.00000000E+00 3.71170704E-01 0.00000000E+00
21  1 0.00000000E+00 0.00000000E+00 0.00000000E+00 0.00000000E+00 0.00000000E+00
21  2 0.00000000E+00 0.00000000E+00 0.00000000E+00 0.00000000E+00 0.00000000E+00
21  3 0.00000000E+00 0.00000000E+00 1.04951196E+00 0.00000000E+00 0.00000000E+00
21  4 0.00000000E+00 0.00000000E+00 0.00000000E+00-3.57965888E-01 0.00000000E+00
21  5 0.00000000E+00 0.00000000E+00 0.00000000E+00 3.57965888E-01 0.00000000E+00
22  1 9.38041921E-02 1.67145870E-01-6.30588995E-01 0.00000000E+00 0.00000000E+00
22  2-1.21138492E-02 0.00000000E+00 0.00000000E+00-5.47993921E-01 5.86251828E-01
22  3 4.70817581E-01-1.05706941E+00 0.00000000E+00 0.00000000E+00 0.00000000E+00
22  4 3.25503387E-01 5.32913995E-02-3.82543204E-01 0.00000000E+00 2.79887519E-01
22  5 3.25503387E-01 5.32913995E-02 3.82543204E-01 0.00000000E+00 2.79887519E-01
23  1 2.00496012E-01 2.92782503E-01-2.12771754E+00 0.00000000E+00 0.00000000E+00
23  2-3.21266971E-01 0.00000000E+00 0.00000000E+00-8.35042059E-01-9.95800900E-01
23  3 1.01672177E+00-2.09208682E-02 0.00000000E+00 0.00000000E+00 0.00000000E+00
23  4 1.07656512E+00 2.01653611E-01-6.21806546E-01 0.00000000E+00-4.85312962E-01
23  5 1.07656512E+00 2.01653611E-01 6.21806546E-01 0.00000000E+00-4.85312962E-01
24  1 0.00000000E+00 0.00000000E+00 0.00000000E+00-3.70305080E-01 0.00000000E+00
24  2 0.00000000E+00-1.13651682E+00 0.00000000E+00 0.00000000E+00 0.00000000E+00
24  3 0.00000000E+00 0.00000000E+00 0.00000000E+00-1.29207413E+00 0.00000000E+00
24  4 9.54619506E-01 2.92413861E-01-5.95505119E-01 0.00000000E+00-4.60096482E-01
24  5-9.54619506E-01-2.92413861E-01-5.95505119E-01 0.00000000E+00 4.60096482E-01
 $END 
