 !######################################################################################
 !                          Metal trifluoride (MF3) TEMPLATE
 ! -------------------------------------------------------------------------------------
 ! Remember to comment out the initial -data group, and end with $data \n c1
 ! 
 ! Basis set?                                                    gbasis=ccd for 2nd row, 
 !                                                                          cct 3rd/4th,
 !                                                                    SPKrTZC beyond 4th
 !
 ! Trouble converging?                                      $scf diis=.t. soscf=.f. $end
 !  
 ! Heavy transition metal atom?                         add $contrl relwfn=LUT-IOTC $end
 !              
 ! 
 !######################################################################################
 $system kdiag=3 mwords=250 memddi=8000 parall=.t. $end
 $contrl runtyp=energy ispher=1 relwfn=LUT-IOTC $end
 $contrl icut=9 itol=20 inttyp=rysquad qmttol=1.0d-05 nosym=1 $end
 $scf    npunch=2 conv=1.0d-06 dirscf=.t. diis=.t. soscf=.f. ethrsh=10.0 $end
 $contrl scftyp=mcscf  mult=5 maxit=200 icharg=0 mplevl=2 $end
 $guess  guess=moread norb=168 purify=.t. $end
 $basis  gbasis=SPKrTZP $end
 $mcscf  cistep=gmcci fullnr=.t. finci=mos
         acurcy=1.d-6 maxit=200 $end
 $trans  dirtrf=.t. $end
 $mrmp   mrpt=gmcpt rdvecs=.f. $end
 $gmcpt  nmofzc=21 nmodoc=12 nmoact=5 nelact=6 stsym(1)=A nsolut=100
         reftyp=ormas nspace=1 mstart(1)=34 mine(1)=6 maxe(1)=6
         kstate(1)=1,1,1,1,1
         wstate(1)=1,1,1,1,1
         iwgt=0 thrwgt=-1.0 krot=.f. kszdoe=.f. knospn=.f.
         thrde=-1.0 edshft=0.02 $end
 $statpt hssend=.t. $end
--- Semi-canonical MOs --- generated at Sun Dec 17 12:34:07 2023
 $VEC   
 1  1 9.95688285E-01 1.09627888E-02-1.14681275E-02-1.18676752E-02 1.44357409E-02
 1  2 8.86715223E-03-5.22688258E-03 1.12222312E-03-2.66864981E-04 0.00000000E+00
 1  3 0.00000000E+00 0.00000000E+00-3.86117688E-11 0.00000000E+00 0.00000000E+00
 1  4 1.89562275E-10 0.00000000E+00 0.00000000E+00-2.96741842E-10 0.00000000E+00
 1  5 0.00000000E+00 3.23283533E-10 0.00000000E+00 0.00000000E+00-2.51118039E-10
 1  6 0.00000000E+00 0.00000000E+00 1.22525010E-10 0.00000000E+00 0.00000000E+00
 1  7 2.07388681E-06 2.07385371E-06-4.14774052E-06 0.00000000E+00 0.00000000E+00
 1  8 0.00000000E+00-9.76660920E-06-9.76656317E-06 1.95331724E-05 0.00000000E+00
 1  9 0.00000000E+00 0.00000000E+00 4.39081420E-05 4.39081433E-05-8.78162853E-05
 1 10 0.00000000E+00 0.00000000E+00 0.00000000E+00-1.51392524E-04-1.51392489E-04
 1 11 3.02785014E-04 0.00000000E+00 0.00000000E+00 0.00000000E+00 2.63495007E-05
 1 12 2.63495142E-05-5.26990149E-05 0.00000000E+00 0.00000000E+00 0.00000000E+00
 1 13 4.65125958E-05 0.00000000E+00 0.00000000E+00 0.00000000E+00 0.00000000E+00
 1 14-6.24031957E-05 0.00000000E+00 0.00000000E+00 0.00000000E+00 0.00000000E+00
 1 15-1.75213799E-04 0.00000000E+00 0.00000000E+00 0.00000000E+00 0.00000000E+00
 1 16 2.35073978E-04 0.00000000E+00 0.00000000E+00 0.00000000E+00 0.00000000E+00
 1 17-1.23754656E-05-1.23754334E-05-3.30012006E-05 0.00000000E+00 0.00000000E+00
 1 18 0.00000000E+00 0.00000000E+00 0.00000000E+00 0.00000000E+00-7.24632288E-06
 1 19 2.89853149E-05 2.89852584E-05 0.00000000E+00 0.00000000E+00 0.00000000E+00
 1 20-6.35901742E-06-4.60526838E-05 7.79593605E-05 1.54250428E-04-8.90316370E-06
 1 21 1.54207211E-05 0.00000000E+00 3.51755416E-05-6.09258057E-05 0.00000000E+00
 1 22 9.03313382E-05-1.56458518E-04 0.00000000E+00 1.60465176E-06-6.37229008E-06
 1 23 4.76763831E-06 7.97693953E-06 0.00000000E+00 0.00000000E+00-1.04903551E-05
 1 24 4.93776741E-05-3.88873191E-05-5.98679945E-05 0.00000000E+00 0.00000000E+00
 1 25 7.51868853E-06 6.84392215E-06 0.00000000E+00 3.06069442E-06 0.00000000E+00
 1 26-1.71557593E-05 0.00000000E+00 7.06838007E-06-1.22427795E-05 0.00000000E+00
 1 27-6.35901744E-06-4.60526832E-05 7.79593610E-05 1.54250426E-04-8.90315998E-06
 1 28-1.54207238E-05 0.00000000E+00 3.51755458E-05 6.09258034E-05 0.00000000E+00
 1 29 9.03313400E-05 1.56458517E-04 0.00000000E+00 1.60465315E-06-6.37229174E-06
 1 30 4.76763858E-06-7.97693600E-06 0.00000000E+00 0.00000000E+00-1.04903546E-05
 1 31 4.93776741E-05-3.88873194E-05 5.98679963E-05 0.00000000E+00 0.00000000E+00
 1 32 7.51869305E-06-6.84391704E-06 0.00000000E+00-3.06070071E-06 0.00000000E+00
 1 33-1.71557669E-05 0.00000000E+00 7.06838165E-06 1.22427790E-05 0.00000000E+00
 1 34-6.35902838E-06-4.60527121E-05 7.79595434E-05 1.54250242E-04 1.78063622E-05
 1 35 0.00000000E+00 0.00000000E+00-7.03511570E-05 0.00000000E+00 0.00000000E+00
 1 36-1.80662701E-04 0.00000000E+00 0.00000000E+00-1.03607142E-05 5.59311557E-06
 1 37 4.76759867E-06 0.00000000E+00 0.00000000E+00 0.00000000E+00 7.93116715E-05
 1 38-4.04243425E-05-3.88873291E-05 0.00000000E+00 0.00000000E+00 0.00000000E+00
 1 39 1.93727284E-05 0.00000000E+00 0.00000000E+00 0.00000000E+00 0.00000000E+00
 1 40-1.18544911E-05 0.00000000E+00-1.41367515E-05 0.00000000E+00 0.00000000E+00
 2  1-3.51687808E-01 1.04693097E+00 2.83019193E-02 1.48562356E-04-9.38881661E-03
 2  2 4.09490420E-03-3.24008967E-03 6.02784454E-04-1.68067870E-04-5.82203055E-11
 2  3-1.19383020E-11 0.00000000E+00-5.09822812E-11 0.00000000E+00 0.00000000E+00
 2  4 1.00673170E-10 0.00000000E+00 0.00000000E+00-7.77154572E-11 0.00000000E+00
 2  5 0.00000000E+00 2.51482951E-11 0.00000000E+00 0.00000000E+00 2.45237975E-11
 2  6 0.00000000E+00 0.00000000E+00-4.98323771E-11-1.86023901E-11 0.00000000E+00
 2  7-1.48846354E-05-1.48846078E-05 2.97692432E-05 0.00000000E+00 0.00000000E+00
 2  8 0.00000000E+00 2.96090572E-06 2.96086907E-06-5.92177479E-06 0.00000000E+00
 2  9 0.00000000E+00 0.00000000E+00 2.96361457E-05 2.96362164E-05-5.92723622E-05
 2 10 0.00000000E+00 0.00000000E+00 0.00000000E+00-1.44148609E-04-1.44148684E-04
 2 11 2.88297293E-04 0.00000000E+00 0.00000000E+00 0.00000000E+00 1.90628301E-05
 2 12 1.90629466E-05-3.81257767E-05 0.00000000E+00 0.00000000E+00 0.00000000E+00
 2 13 4.29237647E-05 0.00000000E+00 0.00000000E+00 0.00000000E+00 0.00000000E+00
 2 14-5.75883460E-05 0.00000000E+00 7.98072611E-11 0.00000000E+00 0.00000000E+00
 2 15-1.79207546E-04 0.00000000E+00 0.00000000E+00 0.00000000E+00 0.00000000E+00
 2 16 2.40432211E-04 0.00000000E+00-6.14772582E-11 0.00000000E+00 0.00000000E+00
 2 17-1.29917079E-05-1.29916658E-05-3.46445170E-05 0.00000000E+00 0.00000000E+00
 2 18 0.00000000E+00 0.00000000E+00 0.00000000E+00 0.00000000E+00-7.60716936E-06
 2 19 3.04286649E-05 3.04285911E-05 0.00000000E+00 0.00000000E+00 0.00000000E+00
 2 20-5.80204356E-06-4.98688183E-05 5.93788511E-05 1.89167008E-04-1.01959511E-05
 2 21 1.76598709E-05 0.00000000E+00 3.08360662E-05-5.34096250E-05 0.00000000E+00
 2 22 9.45602837E-05-1.63783207E-04 0.00000000E+00 2.62835203E-06-1.18435131E-05
 2 23 9.21516108E-06 1.44719155E-05 0.00000000E+00 0.00000000E+00-1.27317306E-05
 2 24 6.11963724E-05-4.84646418E-05-7.39281075E-05 0.00000000E+00 0.00000000E+00
 2 25-9.58200099E-07 7.05208453E-07 0.00000000E+00 3.15386682E-07 0.00000000E+00
 2 26 5.57210311E-07 0.00000000E+00 7.28350023E-07-1.26152311E-06 0.00000000E+00
 2 27-5.80204532E-06-4.98688190E-05 5.93788753E-05 1.89166963E-04-1.01959519E-05
 2 28-1.76598711E-05 0.00000000E+00 3.08360659E-05 5.34096309E-05 0.00000000E+00
 2 29 9.45602752E-05 1.63783192E-04 0.00000000E+00 2.62835419E-06-1.18435131E-05
 2 30 9.21515887E-06-1.44719114E-05 0.00000000E+00 0.00000000E+00-1.27317307E-05
 2 31 6.11963695E-05-4.84646388E-05 7.39281056E-05 0.00000000E+00 0.00000000E+00
 2 32-9.58194137E-07-7.05203303E-07 0.00000000E+00-3.15393339E-07 0.00000000E+00
 2 33 5.57200851E-07 0.00000000E+00 7.28351485E-07 1.26152285E-06 0.00000000E+00
 2 34-5.80204417E-06-4.98688422E-05 5.93788435E-05 1.89167061E-04 2.03918393E-05
 2 35 0.00000000E+00 0.00000000E+00-6.16721056E-05 0.00000000E+00 0.00000000E+00
 2 36-1.89120543E-04 0.00000000E+00 0.00000000E+00-1.90794560E-05 9.86430394E-06
 2 37 9.21515202E-06 0.00000000E+00 0.00000000E+00 0.00000000E+00 9.81604391E-05
 2 38-4.96957717E-05-4.84646674E-05 0.00000000E+00 0.00000000E+00 0.00000000E+00
 2 39 2.63267094E-07 0.00000000E+00 0.00000000E+00 0.00000000E+00 0.00000000E+00
 2 40 1.10345859E-06 0.00000000E+00-1.45666846E-06 0.00000000E+00 0.00000000E+00
 3  1 0.00000000E+00 0.00000000E+00 0.00000000E+00 0.00000000E+00 0.00000000E+00
 3  2 0.00000000E+00 0.00000000E+00 0.00000000E+00 0.00000000E+00 0.00000000E+00
 3  3 0.00000000E+00 9.93406189E-01 0.00000000E+00 0.00000000E+00 1.32653476E-02
 3  4 0.00000000E+00 0.00000000E+00 4.37336910E-03 0.00000000E+00 0.00000000E+00
 3  5-4.38217557E-03 0.00000000E+00 0.00000000E+00 2.25626943E-03 0.00000000E+00
 3  6 0.00000000E+00-1.09403951E-03 0.00000000E+00 0.00000000E+00 2.94558028E-04
 3  7 0.00000000E+00 0.00000000E+00 0.00000000E+00 0.00000000E+00 0.00000000E+00
 3  8 0.00000000E+00 0.00000000E+00 0.00000000E+00 0.00000000E+00 0.00000000E+00
 3  9-2.03818223E-11 0.00000000E+00 0.00000000E+00 0.00000000E+00 0.00000000E+00
 3 10 0.00000000E+00 0.00000000E+00 0.00000000E+00 0.00000000E+00 0.00000000E+00
 3 11 0.00000000E+00 0.00000000E+00 0.00000000E+00 0.00000000E+00 0.00000000E+00
 3 12 0.00000000E+00 0.00000000E+00 0.00000000E+00 1.78766465E-11 0.00000000E+00
 3 13 0.00000000E+00 0.00000000E+00-1.69991726E-06 0.00000000E+00 1.14033182E-06
 3 14 0.00000000E+00 1.14034651E-06 0.00000000E+00 0.00000000E+00 0.00000000E+00
 3 15 0.00000000E+00 0.00000000E+00 1.18027724E-05 0.00000000E+00-7.91752295E-06
 3 16 0.00000000E+00-7.91755796E-06 0.00000000E+00 0.00000000E+00 0.00000000E+00
 3 17 0.00000000E+00 0.00000000E+00 0.00000000E+00 0.00000000E+00-7.23784714E-06
 3 18 0.00000000E+00 0.00000000E+00 0.00000000E+00 0.00000000E+00 0.00000000E+00
 3 19 0.00000000E+00 0.00000000E+00 0.00000000E+00 9.71058543E-06 0.00000000E+00
 3 20 0.00000000E+00 0.00000000E+00 0.00000000E+00 0.00000000E+00 0.00000000E+00
 3 21 0.00000000E+00-4.54444030E-06 0.00000000E+00 0.00000000E+00 1.15609228E-05
 3 22 0.00000000E+00 0.00000000E+00-1.09492993E-05 0.00000000E+00 0.00000000E+00
 3 23 0.00000000E+00 0.00000000E+00-3.61649343E-06 6.26396695E-06 0.00000000E+00
 3 24 0.00000000E+00 0.00000000E+00 0.00000000E+00 1.15935238E-05-2.00805751E-05
 3 25 0.00000000E+00 0.00000000E+00-6.29743498E-06 0.00000000E+00 7.17147401E-07
 3 26 0.00000000E+00 7.73174821E-06 0.00000000E+00 0.00000000E+00-7.01463032E-06
 3 27 0.00000000E+00 0.00000000E+00 0.00000000E+00 0.00000000E+00 0.00000000E+00
 3 28 0.00000000E+00-4.54444001E-06 0.00000000E+00 0.00000000E+00 1.15609238E-05
 3 29 0.00000000E+00 0.00000000E+00-1.09493007E-05 0.00000000E+00 0.00000000E+00
 3 30 0.00000000E+00 0.00000000E+00-3.61649339E-06-6.26396764E-06 0.00000000E+00
 3 31 0.00000000E+00 0.00000000E+00 0.00000000E+00 1.15935234E-05 2.00805754E-05
 3 32 0.00000000E+00 0.00000000E+00-6.29743462E-06 0.00000000E+00 7.17145948E-07
 3 33 0.00000000E+00 7.73174919E-06 0.00000000E+00 0.00000000E+00 7.01463025E-06
 3 34 0.00000000E+00 0.00000000E+00 0.00000000E+00 0.00000000E+00 0.00000000E+00
 3 35 0.00000000E+00-4.54446993E-06 0.00000000E+00 0.00000000E+00 1.15609258E-05
 3 36 0.00000000E+00 0.00000000E+00-1.09492712E-05 0.00000000E+00 0.00000000E+00
 3 37 0.00000000E+00 0.00000000E+00 7.23300095E-06 0.00000000E+00 0.00000000E+00
 3 38 0.00000000E+00 0.00000000E+00 0.00000000E+00-2.31870500E-05 0.00000000E+00
 3 39 0.00000000E+00 0.00000000E+00-6.29745811E-06 0.00000000E+00 1.12391028E-05
 3 40 0.00000000E+00-2.79017614E-06 0.00000000E+00 0.00000000E+00 0.00000000E+00
 4  1-1.95212217E-11 2.73447811E-11-0.00000000E+00-2.17814009E-10 4.99798566E-11
 4  2 3.06659351E-10-9.57196424E-11-1.33799264E-10 1.14064616E-10 9.93416745E-01
 4  3-2.93158385E-04-0.00000000E+00 1.32197894E-02-3.90117457E-06-0.00000000E+00
 4  4 4.54086695E-03-1.34001480E-06-0.00000000E+00-4.69798810E-03 1.38638134E-06
 4  5-0.00000000E+00 2.71559527E-03-8.01374959E-07-0.00000000E+00-1.57709122E-03
 4  6 4.65401103E-07-0.00000000E+00 1.43820593E-04-4.24406257E-08-0.00000000E+00
 4  7-4.14043395E-07 4.14029303E-07 1.16620936E-11-1.40957056E-10-0.00000000E+00
 4  8-0.00000000E+00-1.00852005E-05 1.00851976E-05-0.00000000E+00-3.43663995E-09
 4  9-0.00000000E+00-0.00000000E+00 7.33606635E-05-7.33606266E-05-3.43464873E-11
 4 10 2.49979134E-08-0.00000000E+00-0.00000000E+00-2.90039311E-04 2.90039264E-04
 4 11 4.64019788E-11-9.88321293E-08-0.00000000E+00-0.00000000E+00 4.73890366E-05
 4 12-4.73890338E-05-0.00000000E+00 1.61472767E-08-0.00000000E+00-0.00000000E+00
 4 13 1.59472457E-05-4.70603507E-09-0.00000000E+00-2.10470108E-09-0.00000000E+00
 4 14 7.13177037E-06-0.00000000E+00-2.85272456E-05 8.41850967E-09-0.00000000E+00
 4 15-6.93304422E-05 2.04598510E-08-0.00000000E+00 9.14939198E-09-0.00000000E+00
 4 16-3.10054383E-05-0.00000000E+00 1.24021987E-04-3.65991625E-08-0.00000000E+00
 4 17-5.24631761E-05-1.67539302E-05-0.00000000E+00 1.14577076E-08-0.00000000E+00
 4 18-1.94235565E-08-0.00000000E+00-0.00000000E+00-0.00000000E+00 6.07940829E-05
 4 19 3.13637885E-05-3.13637918E-05-0.00000000E+00-0.00000000E+00 1.06873079E-08
 4 20 4.44807814E-06 3.78370758E-05-5.39365006E-05-1.05495540E-04 5.32840731E-06
 4 21-1.03738376E-05-0.00000000E+00-1.59733461E-05 3.00819145E-05-0.00000000E+00
 4 22-7.04503467E-05 1.10822486E-04-0.00000000E+00-3.18815961E-06 8.39452718E-06
 4 23-5.20636756E-06-6.30054292E-06-0.00000000E+00-0.00000000E+00 1.38853222E-05
 4 24-4.44929797E-05 3.06076576E-05 4.12843596E-05-0.00000000E+00-0.00000000E+00
 4 25 3.00619833E-07 7.54112805E-06-0.00000000E+00-9.53024686E-06-0.00000000E+00
 4 26 2.80500126E-06-0.00000000E+00-3.20832509E-06-5.87238114E-07-0.00000000E+00
 4 27 4.44353342E-06 3.77984171E-05-5.38813937E-05-1.05387748E-04 5.32228660E-06
 4 28 1.03636289E-05-0.00000000E+00-1.59555992E-05-3.00520024E-05-0.00000000E+00
 4 29-7.03849739E-05-1.10705438E-04-0.00000000E+00-3.18760282E-06 8.38865018E-06
 4 30-5.20104736E-06 6.29230548E-06-0.00000000E+00-0.00000000E+00 1.38798703E-05
 4 31-4.44562545E-05 3.05763842E-05-4.12363544E-05-0.00000000E+00-0.00000000E+00
 4 32 3.02338503E-07-7.54442097E-06-0.00000000E+00 9.53317270E-06-0.00000000E+00
 4 33 2.80304113E-06-0.00000000E+00-3.20867080E-06 5.88730176E-07-0.00000000E+00
 4 34-8.89162037E-06-7.56356361E-05 1.07818277E-04 2.10883083E-04 2.32845098E-05
 4 35 1.96096761E-10-0.00000000E+00-6.80419827E-05-4.12836147E-10-0.00000000E+00
 4 36-2.62266511E-04 1.90952023E-09-0.00000000E+00-2.04381781E-05 1.00307706E-05
 4 37 1.04074075E-05-8.99257054E-10-0.00000000E+00-0.00000000E+00 1.21661298E-04
 4 38-6.04772610E-05-6.11840372E-05 2.91231256E-09-0.00000000E+00-0.00000000E+00
 4 39 4.20853634E-06 1.87217030E-09-0.00000000E+00-3.55958500E-09-0.00000000E+00
 4 40-3.45625174E-06-0.00000000E+00-2.19009227E-06 1.04780497E-09-0.00000000E+00
 5  1-0.00000000E+00-0.00000000E+00-0.00000000E+00-0.00000000E+00-0.00000000E+00
 5  2-0.00000000E+00-0.00000000E+00-0.00000000E+00-0.00000000E+00 2.93158385E-04
 5  3 9.93416745E-01-0.00000000E+00 3.90117455E-06 1.32197894E-02-0.00000000E+00
 5  4 1.34001494E-06 4.54086695E-03-0.00000000E+00-1.38638166E-06-4.69798810E-03
 5  5-0.00000000E+00 8.01375497E-07 2.71559527E-03-0.00000000E+00-4.65401736E-07
 5  6-1.57709122E-03-0.00000000E+00 4.24411421E-08 1.43820591E-04-0.00000000E+00
 5  7-1.18410220E-10 1.26161278E-10-0.00000000E+00 4.78089010E-07-0.00000000E+00
 5  8-0.00000000E+00-2.97578597E-09 2.97601068E-09-0.00000000E+00 1.16453834E-05
 5  9-0.00000000E+00-0.00000000E+00 2.16484713E-08-2.16486889E-08-0.00000000E+00
 5 10-8.47095780E-05-0.00000000E+00-0.00000000E+00-8.55902564E-08 8.55919688E-08
 5 11-0.00000000E+00 3.34908523E-04-0.00000000E+00-0.00000000E+00 1.39838880E-08
 5 12-1.39842958E-08-0.00000000E+00-5.47201443E-05-0.00000000E+00-0.00000000E+00
 5 13 4.70613838E-09 1.59472047E-05-0.00000000E+00 7.13182488E-06-0.00000000E+00
 5 14 2.10452291E-09-0.00000000E+00-8.41847012E-09-2.85272451E-05-0.00000000E+00
 5 15-2.04598267E-08-6.93304135E-05-0.00000000E+00-3.10054760E-05-0.00000000E+00
 5 16-9.14948865E-09-0.00000000E+00 3.65992266E-08 1.24021986E-04-0.00000000E+00
 5 17-1.54817289E-08-4.94382507E-09-0.00000000E+00-3.88263872E-05-0.00000000E+00
 5 18 6.58200402E-05-0.00000000E+00-0.00000000E+00-0.00000000E+00 1.79406924E-08
 5 19 9.25482422E-09-9.25626974E-09-0.00000000E+00-0.00000000E+00-3.62157858E-05
 5 20-7.69905660E-06-6.54911812E-05 9.33573497E-05 1.82599050E-04-1.03671505E-05
 5 21 1.72950676E-05-0.00000000E+00 3.00622462E-05-5.06739399E-05-0.00000000E+00
 5 22 1.10743185E-04-1.98284205E-04-0.00000000E+00 9.45415272E-07-9.95696125E-06
 5 23 9.01154598E-06 1.39540945E-05-0.00000000E+00-0.00000000E+00-9.23499086E-06
 5 24 6.22128946E-05-5.29779038E-05-8.13238159E-05-0.00000000E+00-0.00000000E+00
 5 25 2.91319901E-06 5.58132723E-06-0.00000000E+00-4.95841410E-06-0.00000000E+00
 5 26-3.31955799E-06-0.00000000E+00-5.88908623E-07-2.52972216E-06-0.00000000E+00
 5 27 7.70168014E-06 6.55134993E-05-9.33891617E-05-1.82661287E-04 1.03702922E-05
 5 28 1.73011893E-05-0.00000000E+00-3.00716663E-05-5.06916870E-05-0.00000000E+00
 5 29-1.10784748E-04-1.98349580E-04-0.00000000E+00-9.47296148E-07 9.96191304E-06
 5 30-9.01461689E-06 1.39578091E-05-0.00000000E+00-0.00000000E+00 9.24318348E-06
 5 31-6.22391432E-05 5.29959598E-05-8.13481667E-05-0.00000000E+00-0.00000000E+00
 5 32-2.91302189E-06 5.57687506E-06-0.00000000E+00-4.95278863E-06-0.00000000E+00
 5 33 3.32121362E-06-0.00000000E+00 5.87015366E-07-2.52937441E-06-0.00000000E+00
 5 34-2.62404265E-09-2.23209098E-08 3.18190145E-08 6.22310045E-08 6.87087187E-09
 5 35-6.61060372E-07-0.00000000E+00-2.00793304E-08 1.39469337E-06-0.00000000E+00
 5 36-7.73945612E-08-6.46805687E-06-0.00000000E+00-6.03231240E-09 2.96033909E-09
 5 37 3.07197331E-09 3.05015504E-06-0.00000000E+00-0.00000000E+00 3.59031282E-08
 5 38-1.78475085E-08-1.80556197E-08-9.87085764E-06-0.00000000E+00-0.00000000E+00
 5 39 1.24174797E-09-6.34672654E-06-0.00000000E+00 1.20630190E-05-0.00000000E+00
 5 40-1.01946133E-09-0.00000000E+00-6.46518397E-10-3.54799176E-06-0.00000000E+00
 6  1 1.49030082E-09 2.16221394E-09 3.36813691E-08 2.29747111E-08-5.51865689E-08
 6  2 4.64726998E-08-7.46286733E-08-7.45733787E-08 7.65565261E-08-2.59585915E-06
 6  3-4.44246746E-08 0.00000000E+00 6.90397438E-06 1.18151619E-07 0.00000000E+00
 6  4 1.98459260E-05 3.39640604E-07 0.00000000E+00-7.15248142E-05-1.22405851E-06
 6  5 0.00000000E+00 1.29127711E-04 2.20985723E-06 0.00000000E+00-2.05186108E-04
 6  6-3.51149371E-06 0.00000000E+00 1.11057261E-04 1.90058948E-06 0.00000000E+00
 6  7-1.98479365E-05 1.98384467E-05 9.49075821E-09 3.92125957E-07 0.00000000E+00
 6  8 0.00000000E+00 4.14644089E-05-4.14454294E-05-1.89799570E-08-8.19198390E-07
 6  9 0.00000000E+00 0.00000000E+00-1.29210628E-05 1.29222425E-05-1.18052403E-09
 6 10 2.55345230E-07 0.00000000E+00 0.00000000E+00-2.52636088E-05 2.52204142E-05
 6 11 4.31907651E-08 4.98817600E-07 0.00000000E+00 0.00000000E+00 5.68671044E-05
 6 12-5.68412307E-05-2.58782687E-08-1.12350368E-06 0.00000000E+00 0.00000000E+00
 6 13 1.19684468E-06 2.04085961E-08 0.00000000E+00 9.12342135E-09 0.00000000E+00
 6 14 5.27287159E-07 0.00000000E+00-2.13302279E-06-3.65044263E-08 0.00000000E+00
 6 15-1.30703034E-05-2.23172005E-07 0.00000000E+00-9.97987629E-08 0.00000000E+00
 6 16-5.79148658E-06 0.00000000E+00 2.33271387E-05 3.99215427E-07 0.00000000E+00
 6 17-1.23390175E-05-3.74716427E-06-6.22046745E-09-1.52467064E-07 0.00000000E+00
 6 18 2.63617746E-07 0.00000000E+00 0.00000000E+00 0.00000000E+00 1.41231914E-05
 6 19 7.55177513E-06-7.54084717E-06 0.00000000E+00 0.00000000E+00-1.49124289E-07
 6 20-3.94826263E-01-3.23880047E-03-4.42372318E-04 1.10949093E-04-1.20162823E-04
 6 21 2.16977495E-04 0.00000000E+00 4.35787190E-05-8.25672357E-05 0.00000000E+00
 6 22-1.88570203E-05 6.47298281E-05 0.00000000E+00-2.41844195E-06 4.58964807E-06
 6 23-2.17120612E-06-7.27081989E-06 0.00000000E+00 0.00000000E+00 8.47880361E-07
 6 24-1.27107397E-05 1.18628593E-05 1.45290268E-05 0.00000000E+00 0.00000000E+00
 6 25 3.88650565E-06 3.28985812E-06 0.00000000E+00 4.88832968E-07 0.00000000E+00
 6 26-7.70195440E-06 0.00000000E+00 2.48765990E-06-4.90264081E-06 0.00000000E+00
 6 27-4.18968137E-01-3.43683846E-03-4.69422035E-04 1.17731929E-04-1.27819566E-04
 6 28-2.30066197E-04 0.00000000E+00 4.64910560E-05 8.74728764E-05 0.00000000E+00
 6 29-2.11314720E-05-6.80417828E-05 0.00000000E+00-2.57430944E-06 4.87824446E-06
 6 30-2.30393502E-06 7.71013902E-06 0.00000000E+00 0.00000000E+00 9.29201816E-07
 6 31-1.35173790E-05 1.25881772E-05-1.53980000E-05 0.00000000E+00 0.00000000E+00
 6 32 4.11256761E-06-3.43996573E-06 0.00000000E+00-5.75203470E-07 0.00000000E+00
 6 33-8.17809174E-06 0.00000000E+00 2.66050330E-06 5.19040180E-06 0.00000000E+00
 6 34 8.14783195E-01 6.68373555E-03 9.12932881E-04-2.28900713E-04-5.11766569E-04
 6 35 8.65782323E-08 0.00000000E+00 1.92528590E-04-6.93339884E-08 0.00000000E+00
 6 36-1.35203847E-04 3.13754732E-07 0.00000000E+00-1.71105949E-05 1.26315206E-05
 6 37 4.47907435E-06-2.56993966E-09 0.00000000E+00 0.00000000E+00 4.17298770E-05
 6 38-1.72512837E-05-2.44785933E-05 9.49459554E-09 0.00000000E+00 0.00000000E+00
 6 39-1.72225799E-05-7.49250557E-09 0.00000000E+00 1.58647250E-08 0.00000000E+00
 6 40 1.17796750E-05 0.00000000E+00 1.13268407E-05-5.81247390E-09 0.00000000E+00
 7  1-6.21129897E-11-8.17402640E-11-1.38563142E-09-8.87456330E-10 2.27364825E-09
 7  2-2.09967512E-09 3.28029426E-09 3.20055040E-09-3.29697652E-09 4.44247796E-08
 7  3-2.59585211E-06-0.00000000E+00-1.18152574E-07 6.90391737E-06-0.00000000E+00
 7  4-3.39637389E-07 1.98461284E-05-0.00000000E+00 1.22405434E-06-7.15250646E-05
 7  5-0.00000000E+00-2.20985234E-06 1.29128028E-04-0.00000000E+00 3.51149173E-06
 7  6-2.05186281E-04-0.00000000E+00-1.90059815E-06 1.11057256E-04-0.00000000E+00
 7  7 3.39796844E-07-3.39383495E-07-4.13366681E-10 2.29129861E-05-0.00000000E+00
 7  8-0.00000000E+00-7.09856907E-07 7.09035964E-07 8.20958886E-10-4.78680147E-05
 7  9-0.00000000E+00-0.00000000E+00 2.21110861E-07-2.21162535E-07 5.16900914E-11
 7 10 1.49205873E-05-0.00000000E+00-0.00000000E+00 4.32915756E-07-4.31053470E-07
 7 11-1.86221560E-09 2.91470235E-05-0.00000000E+00-0.00000000E+00-9.73541464E-07
 7 12 9.72426659E-07 1.11500151E-09-6.56495436E-05-0.00000000E+00-0.00000000E+00
 7 13-2.05994204E-08 1.19239875E-06-0.00000000E+00 5.33256986E-07-0.00000000E+00
 7 14-8.86697741E-09-0.00000000E+00 3.65039997E-08-2.13302778E-06-0.00000000E+00
 7 15 2.24463346E-07-1.30403087E-05-0.00000000E+00-5.83174920E-06-0.00000000E+00
 7 16 9.80643008E-08-0.00000000E+00-3.99213481E-07 2.33271592E-05-0.00000000E+00
 7 17 2.11226623E-07 6.41883750E-08 2.67746527E-10-8.90907238E-06-0.00000000E+00
 7 18 1.54039070E-05-0.00000000E+00-0.00000000E+00-0.00000000E+00-2.41664317E-07
 7 19-1.29380622E-07 1.28909725E-07-0.00000000E+00-0.00000000E+00-8.71373507E-06
 7 20 7.12292571E-01 5.84300074E-03 7.98086742E-04-2.00125267E-04 2.25821319E-04
 7 21-3.86224759E-04-0.00000000E+00-8.58574983E-05 1.44778149E-04-0.00000000E+00
 7 22 6.67922532E-05-9.78974684E-05-0.00000000E+00 4.59649538E-06-8.51261113E-06
 7 23 3.91611575E-06 1.29633557E-05-0.00000000E+00-0.00000000E+00-2.39106336E-06
 7 24 2.37911847E-05-2.14001214E-05-2.56439008E-05-0.00000000E+00-0.00000000E+00
 7 25-6.67299848E-06-4.44337012E-06-0.00000000E+00-2.53213901E-06-0.00000000E+00
 7 26 1.40467285E-05-0.00000000E+00-5.09396152E-06 8.49354559E-06-0.00000000E+00
 7 27-6.98382669E-01-5.72889614E-03-7.82502303E-04 1.96215502E-04-2.21582830E-04
 7 28-3.78583561E-04-0.00000000E+00 8.43181039E-05 1.41871659E-04-0.00000000E+00
 7 29-6.61098597E-05-9.56286484E-05-0.00000000E+00-4.51119109E-06 8.35078904E-06
 7 30-3.83959795E-06 1.27073243E-05-0.00000000E+00-0.00000000E+00 2.36079326E-06
 7 31-2.33429447E-05 2.09821514E-05-2.51325019E-05-0.00000000E+00-0.00000000E+00
 7 32 6.53628431E-06-4.32829785E-06-0.00000000E+00-2.51397419E-06-0.00000000E+00
 7 33-1.37753058E-05-0.00000000E+00 5.00596020E-06 8.32099512E-06-0.00000000E+00
 7 34-1.39525110E-02-1.14453505E-04-1.56335128E-05 3.91923848E-06 8.76362452E-06
 7 35 5.05916885E-06-0.00000000E+00-3.29690995E-06-4.05149053E-06-0.00000000E+00
 7 36 2.31579645E-06 1.83336085E-05-0.00000000E+00 2.93016771E-07-2.16329098E-07
 7 37-7.66876724E-08-1.50202723E-07-0.00000000E+00-0.00000000E+00-7.14652875E-07
 7 38 2.95495061E-07 4.19157814E-07 5.54784755E-07-0.00000000E+00-0.00000000E+00
 7 39 2.94918192E-07-4.38147607E-07-0.00000000E+00 9.27371103E-07-0.00000000E+00
 7 40-2.01727211E-07-0.00000000E+00-1.93947064E-07-3.39534403E-07-0.00000000E+00
 8  1 2.64266327E-06 3.61030387E-06 5.90074106E-05 3.98711437E-05-9.62630847E-05
 8  2 8.15537304E-05-1.30676484E-04-1.30078291E-04 1.33793010E-04 1.43065305E-09
 8  3-3.88302824E-11-0.00000000E+00-3.82893841E-09 1.03211014E-10-0.00000000E+00
 8  4-1.15457794E-08 2.94687208E-10-0.00000000E+00 4.12926487E-08-1.06196680E-09
 8  5-0.00000000E+00-7.42186308E-08 1.91877753E-09-0.00000000E+00 1.17803677E-07
 8  6-3.05006266E-09-0.00000000E+00-6.33794668E-08 1.64523713E-09-0.00000000E+00
 8  7-8.29719750E-06-8.31988744E-06 1.66170849E-05 3.39709365E-10-0.00000000E+00
 8  8-0.00000000E+00 1.65185084E-05 1.65659008E-05-3.30844092E-05-7.10055462E-10
 8  9-0.00000000E+00-0.00000000E+00 1.00808223E-06 9.93527408E-07-2.00160964E-06
 8 10 2.21608231E-10-0.00000000E+00-0.00000000E+00-3.77425748E-05-3.77720117E-05
 8 11 7.55145865E-05 4.35435584E-10-0.00000000E+00-0.00000000E+00 2.25695804E-05
 8 12 2.26346665E-05-4.52042470E-05-9.73215201E-10-0.00000000E+00-0.00000000E+00
 8 13 7.77244063E-06 1.39223855E-11-0.00000000E+00 1.29924703E-11-0.00000000E+00
 8 14-1.04291266E-05-0.00000000E+00 1.31719703E-09-3.16713106E-11-0.00000000E+00
 8 15-5.24833353E-05-2.03842399E-10-0.00000000E+00-7.36956933E-11-0.00000000E+00
 8 16 7.04272005E-05-0.00000000E+00-1.34164066E-08 3.47178970E-10-0.00000000E+00
 8 17-4.07258069E-06-4.07751303E-06-1.08790258E-05-1.29394117E-10-0.00000000E+00
 8 18 2.26811510E-10-0.00000000E+00-0.00000000E+00-0.00000000E+00-2.39684855E-06
 8 19 9.55082578E-06 9.55949001E-06-0.00000000E+00-0.00000000E+00-1.30699147E-10
 8 20 5.76232828E-01 4.71840359E-03 6.63560433E-04-1.28135046E-04 1.81859137E-04
 8 21-3.14994179E-04-0.00000000E+00-6.83791619E-05 1.18440161E-04-0.00000000E+00
 8 22 6.58227328E-05-1.14026118E-04-0.00000000E+00 4.73801586E-06-7.02928596E-06
 8 23 2.29127009E-06 1.17674516E-05-0.00000000E+00-0.00000000E+00-4.78884156E-06
 8 24 2.08505763E-05-1.60617348E-05-2.56399929E-05-0.00000000E+00-0.00000000E+00
 8 25-6.04174618E-06-3.36539633E-06-0.00000000E+00-1.50451741E-06-0.00000000E+00
 8 26 1.15811236E-05-0.00000000E+00-3.47527052E-06 6.01967039E-06-0.00000000E+00
 8 27 5.76211858E-01 4.71823157E-03 6.63536935E-04-1.28129165E-04 1.81852486E-04
 8 28 3.14982805E-04-0.00000000E+00-6.83766180E-05-1.18435903E-04-0.00000000E+00
 8 29 6.58207304E-05 1.14023251E-04-0.00000000E+00 4.73787309E-06-7.02903135E-06
 8 30 2.29115826E-06-1.17670693E-05-0.00000000E+00-0.00000000E+00-4.78876489E-06
 8 31 2.08498693E-05-1.60611044E-05 2.56392415E-05-0.00000000E+00-0.00000000E+00
 8 32-6.04155188E-06 3.36527113E-06-0.00000000E+00 1.50443751E-06-0.00000000E+00
 8 33 1.15807094E-05-0.00000000E+00-3.47511699E-06-6.01942252E-06-0.00000000E+00
 8 34 5.75522745E-01 4.71257873E-03 6.62764922E-04-1.27936095E-04-3.63276450E-04
 8 35 7.33960596E-11-0.00000000E+00 1.36594008E-04-5.11238658E-11-0.00000000E+00
 8 36-1.31542700E-04 2.57864942E-10-0.00000000E+00-1.28981332E-05 1.06107709E-05
 8 37 2.28736233E-06-0.00000000E+00-0.00000000E+00-0.00000000E+00 3.36342721E-05
 8 38-1.75939079E-05-1.60403641E-05-0.00000000E+00-0.00000000E+00-0.00000000E+00
 8 39-1.18550958E-05-0.00000000E+00-0.00000000E+00-0.00000000E+00-0.00000000E+00
 8 40 8.96433406E-06-0.00000000E+00 6.94094593E-06-0.00000000E+00-0.00000000E+00
 9  1 1.50965121E-01-5.43096513E-01 1.11274964E+00 4.58816139E-03-1.04178469E-04
 9  2 3.46668170E-03-1.58413199E-03 4.69374756E-04-9.03447115E-05-1.27304904E-10
 9  3-0.00000000E+00-0.00000000E+00 2.31131807E-10 1.07192730E-11-0.00000000E+00
 9  4-1.14579056E-10 3.00855775E-11-0.00000000E+00 3.34594643E-10-4.50747618E-11
 9  5-0.00000000E+00-4.60880796E-10 4.03274610E-11-0.00000000E+00 4.53227514E-10
 9  6-2.67388599E-11-0.00000000E+00 1.68912003E-10-5.30181108E-11-0.00000000E+00
 9  7-2.39592828E-04-2.39592657E-04 4.79185484E-04-0.00000000E+00-0.00000000E+00
 9  8-0.00000000E+00-7.89899109E-05-7.89900381E-05 1.57979949E-04-0.00000000E+00
 9  9-0.00000000E+00-0.00000000E+00 7.30138600E-05 7.30140240E-05-1.46027884E-04
 9 10-0.00000000E+00-0.00000000E+00-0.00000000E+00-4.26851473E-05-4.26854990E-05
 9 11 8.53706463E-05 2.50093770E-11-0.00000000E+00-0.00000000E+00 2.01525259E-05
 9 12 2.01525508E-05-4.03050767E-05 1.31152321E-11-0.00000000E+00-0.00000000E+00
 9 13 3.68987076E-06-0.00000000E+00-0.00000000E+00-0.00000000E+00-0.00000000E+00
 9 14-4.95045888E-06-0.00000000E+00-2.33094067E-11-0.00000000E+00-0.00000000E+00
 9 15-1.71811046E-05-0.00000000E+00-0.00000000E+00-0.00000000E+00-0.00000000E+00
 9 16 2.30509356E-05-0.00000000E+00-6.04617651E-11-0.00000000E+00-0.00000000E+00
 9 17-2.03423832E-06-2.03425359E-06-5.42468787E-06-0.00000000E+00-0.00000000E+00
 9 18-0.00000000E+00-0.00000000E+00-0.00000000E+00-0.00000000E+00-1.19116057E-06
 9 19 4.76454454E-06 4.76457137E-06-0.00000000E+00-0.00000000E+00-0.00000000E+00
 9 20 2.96602467E-06-1.56542196E-05 4.51886728E-05-4.89848899E-05-4.03996670E-06
 9 21 6.99737944E-06-0.00000000E+00 5.76740903E-06-9.98961460E-06-0.00000000E+00
 9 22-4.91151411E-06 8.50692051E-06-0.00000000E+00-1.13438747E-06 5.56886052E-06
 9 23-4.43447305E-06-6.70332012E-06-0.00000000E+00-0.00000000E+00 1.90791570E-06
 9 24-8.54179551E-06 6.63387981E-06 1.04498979E-05-0.00000000E+00-0.00000000E+00
 9 25 7.22729480E-06 4.92422787E-06-0.00000000E+00 2.20220254E-06-0.00000000E+00
 9 26-1.47821796E-05-0.00000000E+00 5.08574609E-06-8.80874748E-06-0.00000000E+00
 9 27 2.96602357E-06-1.56542334E-05 4.51887546E-05-4.89850448E-05-4.03997016E-06
 9 28-6.99737943E-06-0.00000000E+00 5.76741873E-06 9.98962843E-06-0.00000000E+00