 !Step 2: Sinple point gmcpt calculation for RhF3 model.
 $system kdiag=3 mwords=200 memddi=3000 parall=.t. $end
 $contrl runtyp=energy ispher=1 relwfn=LUT-IOTC $end
 $contrl icut=9 itol=20 inttyp=rysquad qmttol=1.0d-05 nosym=1 $end
 $scf    npunch=2 conv=1.0d-06 dirscf=.t. diis=.t. soscf=.f. ethrsh=10.0 $end
 $contrl scftyp=mcscf  mult=5 maxit=200 icharg=0 mplevl=2 $end
 $guess  guess=moread norb=168 purify=.t. $end
 $basis  gbasis=SPKrTZP $end
 $mcscf  cistep=gmcci fullnr=.t. finci=mos
         acurcy=1.d-6 maxit=200 $end
 $trans  dirtrf=.t. $end
 $mrmp   mrpt=gmcpt rdvecs=.f. $end
 $gmcpt  nmofzc=21 nmodoc=12 nmoact=5 nelact=6 stsym(1)=A nsolut=100
         reftyp=ormas nspace=1 mstart(1)=34 mine(1)=6 maxe(1)=6
         kstate(1)=1,1,1,1,1,1,1,1,1,1,1,1,1,1,1,1,1,1,1,1,1,1,1,1,1
         wstate(1)=1,1,1,1,1,1,1,1,1,1,1,1,1,1,1,1,1,1,1,1,1,1,1,1,1
         iwgt=0 thrwgt=-1.0 krot=.f. kszdoe=.f. knospn=.t.
         thrde=-1.0 edshft=0.02 $end
 $statpt hssend=.t. $end
 $transt $end
Semi-canonical MOs --- generated at Wed Jan 17 19:28:26 2024
 $VEC   
 1  1 9.95688348E-01 1.09626692E-02-1.14677629E-02-1.18672969E-02 1.44352661E-02
 1  2 8.86687211E-03-5.22670422E-03 1.12217386E-03-2.66851194E-04-0.00000000E+00
 1  3-0.00000000E+00-0.00000000E+00-1.38193732E-11-0.00000000E+00-0.00000000E+00
 1  4 1.32950071E-10-0.00000000E+00-0.00000000E+00-2.13315450E-10-0.00000000E+00
 1  5-0.00000000E+00 2.21865001E-10-0.00000000E+00-0.00000000E+00-1.76738910E-10
 1  6-0.00000000E+00-0.00000000E+00 8.78149654E-11-0.00000000E+00-0.00000000E+00
 1  7 2.21346073E-06 2.21343470E-06-4.42689543E-06-0.00000000E+00-0.00000000E+00
 1  8-0.00000000E+00-9.85548886E-06-9.85545692E-06 1.97109458E-05-0.00000000E+00
 1  9-0.00000000E+00-0.00000000E+00 4.39802872E-05 4.39802923E-05-8.79605795E-05
 1 10-0.00000000E+00-0.00000000E+00-0.00000000E+00-1.51418140E-04-1.51418120E-04
 1 11 3.02836260E-04-0.00000000E+00-0.00000000E+00-0.00000000E+00 2.63596324E-05
 1 12 2.63596434E-05-5.27192758E-05-0.00000000E+00-0.00000000E+00-0.00000000E+00
 1 13 4.64889882E-05-0.00000000E+00-0.00000000E+00-0.00000000E+00-0.00000000E+00
 1 14-6.23715230E-05-0.00000000E+00-0.00000000E+00-0.00000000E+00-0.00000000E+00
 1 15-1.75203029E-04-0.00000000E+00-0.00000000E+00-0.00000000E+00-0.00000000E+00
 1 16 2.35059528E-04-0.00000000E+00-0.00000000E+00-0.00000000E+00-0.00000000E+00
 1 17-1.23750216E-05-1.23749995E-05-3.30000305E-05-0.00000000E+00-0.00000000E+00
 1 18-0.00000000E+00-0.00000000E+00-0.00000000E+00-0.00000000E+00-7.24606628E-06
 1 19 2.89842784E-05 2.89842395E-05-0.00000000E+00-0.00000000E+00-0.00000000E+00
 1 20-6.35882454E-06-4.60499416E-05 7.79606410E-05 1.54240465E-04-8.90253437E-06
 1 21 1.54196380E-05-0.00000000E+00 3.51737014E-05-6.09226180E-05-0.00000000E+00
 1 22 9.03282396E-05-1.56453131E-04-0.00000000E+00 1.60388688E-06-6.37034985E-06
 1 23 4.76646297E-06 7.97423578E-06-0.00000000E+00-0.00000000E+00-1.04883450E-05
 1 24 4.93721732E-05-3.88838281E-05-5.98604954E-05-0.00000000E+00-0.00000000E+00
 1 25 7.52078982E-06 6.84465289E-06-0.00000000E+00 3.06102179E-06-0.00000000E+00
 1 26-1.71593312E-05-0.00000000E+00 7.06913282E-06-1.22440873E-05-0.00000000E+00
 1 27-6.35882118E-06-4.60499458E-05 7.79606353E-05 1.54240458E-04-8.90253491E-06
 1 28-1.54196370E-05-0.00000000E+00 3.51737020E-05 6.09226216E-05-0.00000000E+00
 1 29 9.03282361E-05 1.56453132E-04-0.00000000E+00 1.60388855E-06-6.37035053E-06
 1 30 4.76646198E-06-7.97423231E-06-0.00000000E+00-0.00000000E+00-1.04883453E-05
 1 31 4.93721731E-05-3.88838278E-05 5.98604960E-05-0.00000000E+00-0.00000000E+00
 1 32 7.52079217E-06-6.84465004E-06-0.00000000E+00-3.06102614E-06-0.00000000E+00
 1 33-1.71593360E-05-0.00000000E+00 7.06913444E-06 1.22440878E-05-0.00000000E+00
 1 34-6.35882992E-06-4.60499624E-05 7.79607666E-05 1.54240330E-04 1.78050950E-05
 1 35-0.00000000E+00-0.00000000E+00-7.03474517E-05-0.00000000E+00-0.00000000E+00
 1 36-1.80656492E-04-0.00000000E+00-0.00000000E+00-1.03574350E-05 5.59100058E-06
 1 37 4.76643439E-06-0.00000000E+00-0.00000000E+00-0.00000000E+00 7.93024210E-05
 1 38-4.04185858E-05-3.88838352E-05-0.00000000E+00-0.00000000E+00-0.00000000E+00
 1 39 1.93760901E-05-0.00000000E+00-0.00000000E+00-0.00000000E+00-0.00000000E+00
 1 40-1.18574930E-05-0.00000000E+00-1.41382598E-05-0.00000000E+00-0.00000000E+00
 2  1-3.51688565E-01 1.04693131E+00 2.82876754E-02 1.35541267E-04-9.37205746E-03
 2  2 4.10403520E-03-3.24288112E-03 5.99258445E-04-1.67177245E-04-1.30190914E-10
 2  3-2.48951019E-11-0.00000000E+00-3.57094316E-11-0.00000000E+00-0.00000000E+00
 2  4 6.78819740E-11-0.00000000E+00-0.00000000E+00-5.09659351E-11-0.00000000E+00
 2  5-0.00000000E+00 1.21663230E-11-0.00000000E+00-0.00000000E+00 3.56374644E-11
 2  6-0.00000000E+00-0.00000000E+00-6.46082398E-11-1.65377538E-11-0.00000000E+00
 2  7 9.94778124E-06 9.94780759E-06-1.98955888E-05-0.00000000E+00-0.00000000E+00
 2  8-0.00000000E+00-9.07201855E-06-9.07204430E-06 1.81440628E-05-0.00000000E+00
 2  9-0.00000000E+00-0.00000000E+00 3.84710561E-05 3.84711120E-05-7.69421681E-05
 2 10-0.00000000E+00-0.00000000E+00-0.00000000E+00-1.48437891E-04-1.48437944E-04
 2 11 2.96875835E-04-0.00000000E+00-0.00000000E+00-0.00000000E+00 2.03272905E-05
 2 12 2.03273873E-05-4.06546778E-05-0.00000000E+00-0.00000000E+00-0.00000000E+00
 2 13 4.43430512E-05-0.00000000E+00-0.00000000E+00-0.00000000E+00-0.00000000E+00
 2 14-5.94925033E-05-0.00000000E+00 6.45225778E-11-0.00000000E+00-0.00000000E+00
 2 15-1.80031301E-04-0.00000000E+00-0.00000000E+00-0.00000000E+00-0.00000000E+00
 2 16 2.41537381E-04-0.00000000E+00-4.89052304E-11-0.00000000E+00-0.00000000E+00
 2 17-1.27148009E-05-1.27147663E-05-3.39061091E-05-0.00000000E+00-0.00000000E+00
 2 18-0.00000000E+00-0.00000000E+00-0.00000000E+00-0.00000000E+00-7.44503204E-06
 2 19 2.97801073E-05 2.97800464E-05-0.00000000E+00-0.00000000E+00-0.00000000E+00
 2 20-5.81262954E-06-4.98352083E-05 5.99400256E-05 1.89644191E-04-1.02033447E-05
 2 21 1.76726831E-05-0.00000000E+00 3.08488172E-05-5.34317204E-05-0.00000000E+00
 2 22 9.48685595E-05-1.64317152E-04-0.00000000E+00 2.56542927E-06-1.16332176E-05
 2 23 9.06778835E-06 1.41986871E-05-0.00000000E+00-0.00000000E+00-1.25859089E-05
 2 24 6.07994542E-05-4.82135453E-05-7.33853692E-05-0.00000000E+00-0.00000000E+00
 2 25-7.01500261E-07 8.58842320E-07-0.00000000E+00 3.84089875E-07-0.00000000E+00
 2 26 5.41407941E-08-0.00000000E+00 8.87020567E-07-1.53634776E-06-0.00000000E+00
 2 27-5.81263043E-06-4.98352113E-05 5.99400470E-05 1.89644149E-04-1.02033407E-05
 2 28-1.76726799E-05-0.00000000E+00 3.08488203E-05 5.34317285E-05-0.00000000E+00
 2 29 9.48685564E-05 1.64317143E-04-0.00000000E+00 2.56543071E-06-1.16332171E-05
 2 30 9.06778636E-06-1.41986828E-05-0.00000000E+00-0.00000000E+00-1.25859085E-05
 2 31 6.07994519E-05-4.82135434E-05 7.33853681E-05-0.00000000E+00-0.00000000E+00
 2 32-7.01493496E-07-8.58835837E-07-0.00000000E+00-3.84097750E-07-0.00000000E+00
 2 33 5.41303928E-08-0.00000000E+00 8.87021893E-07 1.53634694E-06-0.00000000E+00
 2 34-5.81262920E-06-4.98352185E-05 5.99399930E-05 1.89644265E-04 2.04066375E-05
 2 35-0.00000000E+00-0.00000000E+00-6.16976269E-05-0.00000000E+00-0.00000000E+00
 2 36-1.89737107E-04-0.00000000E+00-0.00000000E+00-1.87325452E-05 9.66476700E-06
 2 37 9.06777824E-06-0.00000000E+00-0.00000000E+00-0.00000000E+00 9.74921444E-05
 2 38-4.92785829E-05-4.82135616E-05-0.00000000E+00-0.00000000E+00-0.00000000E+00
 2 39 7.86067697E-07-0.00000000E+00-0.00000000E+00-0.00000000E+00-0.00000000E+00
 2 40 7.19392905E-07-0.00000000E+00-1.77401339E-06-0.00000000E+00-0.00000000E+00
 3  1-4.22388222E-11 1.10543901E-10-1.71293290E-11-1.86668303E-10 4.65584719E-11
 3  2 2.61108884E-10-8.64613038E-11-1.18185089E-10 9.99252553E-11 9.93416597E-01
 3  3 2.47192925E-03-0.00000000E+00 1.32107360E-02 3.28724144E-05-0.00000000E+00
 3  4 4.54745916E-03 1.13154966E-05-0.00000000E+00-4.69744222E-03-1.16886993E-05
 3  5-0.00000000E+00 2.71966299E-03 6.76736757E-06-0.00000000E+00-1.57864403E-03
 3  6-3.92815691E-06-0.00000000E+00 1.40130287E-04 3.48686207E-07-0.00000000E+00
 3  7 2.21235088E-06-2.21234366E-06-0.00000000E+00-6.35628908E-09-0.00000000E+00
 3  8-0.00000000E+00-1.06207365E-05 1.06207338E-05-0.00000000E+00 3.05138040E-08
 3  9-0.00000000E+00-0.00000000E+00 7.29618981E-05-7.29618630E-05-3.26170821E-11
 3 10-2.09632720E-07-0.00000000E+00-0.00000000E+00-2.93303723E-04 2.93303667E-04
 3 11 5.43831550E-11 8.42728520E-07-0.00000000E+00-0.00000000E+00 4.67630638E-05
 3 12-4.67630600E-05-0.00000000E+00-1.34359177E-07-0.00000000E+00-0.00000000E+00
 3 13 2.07705267E-05 5.16825074E-08-0.00000000E+00 2.31146735E-08-0.00000000E+00
 3 14 9.28881574E-06-0.00000000E+00-3.71554015E-05-9.24540334E-08-0.00000000E+00
 3 15-7.08281573E-05-1.76238228E-07-0.00000000E+00-7.88215493E-08-0.00000000E+00
 3 16-3.16752449E-05-0.00000000E+00 1.26701190E-04 3.15269944E-07-0.00000000E+00
 3 17-5.27576649E-05-1.66672969E-05-0.00000000E+00-9.66446290E-08-0.00000000E+00
 3 18 1.64529354E-07-0.00000000E+00-0.00000000E+00-0.00000000E+00 6.09766424E-05
 3 19 3.16985338E-05-3.16985331E-05-0.00000000E+00-0.00000000E+00-9.10769157E-08
 3 20 4.44128926E-06 3.76625166E-05-5.33688039E-05-1.07256726E-04 5.06727606E-06
 3 21-1.04627617E-05-0.00000000E+00-1.62703125E-05 2.99753572E-05-0.00000000E+00
 3 22-7.10462695E-05 1.11154853E-04-0.00000000E+00-3.17479102E-06 8.40883655E-06
 3 23-5.23404553E-06-6.29839631E-06-0.00000000E+00-0.00000000E+00 1.38835525E-05
 3 24-4.44917730E-05 3.06082205E-05 4.12564160E-05-0.00000000E+00-0.00000000E+00
 3 25 2.92396846E-07 7.58906474E-06-0.00000000E+00-9.55795083E-06-0.00000000E+00
 3 26 2.83429929E-06-0.00000000E+00-3.22659082E-06-6.23847957E-07-0.00000000E+00
 3 27 4.47973709E-06 3.79885615E-05-5.38308096E-05-1.08185265E-04 5.11955792E-06
 3 28 1.05484768E-05-0.00000000E+00-1.64201217E-05-3.02296832E-05-0.00000000E+00
 3 29-7.16019219E-05-1.12151420E-04-0.00000000E+00-3.17943072E-06 8.45878889E-06
 3 30-5.27935817E-06 6.36815039E-06-0.00000000E+00-0.00000000E+00 1.39297533E-05
 3 31-4.48029499E-05 3.08731966E-05-4.16629031E-05-0.00000000E+00-0.00000000E+00
 3 32 2.77594891E-07-7.56130442E-06-0.00000000E+00 9.53320577E-06-0.00000000E+00
 3 33 2.85108434E-06-0.00000000E+00-3.22351697E-06 6.11348641E-07-0.00000000E+00
 3 34-8.92103181E-06-7.56511880E-05 1.07199920E-04 2.15441842E-04 2.32896738E-05
 3 35-2.42021280E-09-0.00000000E+00-6.84843205E-05 2.57560702E-09-0.00000000E+00
 3 36-2.64713047E-04-1.70712107E-08-0.00000000E+00-2.05621539E-05 1.00487563E-05
 3 37 1.05133977E-05 7.58210769E-09-0.00000000E+00-0.00000000E+00 1.22207317E-04
 3 38-6.07258969E-05-6.14814206E-05-2.45613059E-08-0.00000000E+00-0.00000000E+00
 3 39 4.24059248E-06-1.57939347E-08-0.00000000E+00 3.01030088E-08-0.00000000E+00
 3 40-3.53400354E-06-0.00000000E+00-2.15534829E-06-8.91322174E-09-0.00000000E+00
 4  1 0.00000000E+00 2.65880238E-11 0.00000000E+00 0.00000000E+00 0.00000000E+00
 4  2 0.00000000E+00 0.00000000E+00 0.00000000E+00 0.00000000E+00-2.47192925E-03
 4  3 9.93416597E-01 0.00000000E+00-3.28724155E-05 1.32107360E-02 0.00000000E+00
 4  4-1.13154962E-05 4.54745916E-03 0.00000000E+00 1.16887014E-05-4.69744226E-03
 4  5 0.00000000E+00-6.76736955E-06 2.71966304E-03 0.00000000E+00 3.92815727E-06
 4  6-1.57864407E-03 0.00000000E+00-3.48681950E-07 1.40130292E-04 0.00000000E+00
 4  7-5.50608379E-09 5.50594314E-09 0.00000000E+00-2.55460264E-06 0.00000000E+00
 4  8 0.00000000E+00 2.64312529E-08-2.64311019E-08 0.00000000E+00 1.22637897E-05
 4  9 0.00000000E+00 0.00000000E+00-1.81555918E-07 1.81557721E-07 0.00000000E+00
 4 10-8.42491561E-05 0.00000000E+00 0.00000000E+00 7.29837202E-07-7.29836685E-07
 4 11 0.00000000E+00 3.38677950E-04 0.00000000E+00 0.00000000E+00-1.16359718E-07
 4 12 1.16359419E-07 0.00000000E+00-5.39973363E-05 0.00000000E+00 0.00000000E+00
 4 13-5.16826385E-08 2.07704999E-05 0.00000000E+00 9.28885505E-06 0.00000000E+00
 4 14-2.31154624E-08 0.00000000E+00 9.24549981E-08-3.71554048E-05 0.00000000E+00
 4 15 1.76241148E-07-7.08281358E-05 0.00000000E+00-3.16752762E-05 0.00000000E+00
 4 16 7.88207384E-08 0.00000000E+00-3.15273051E-07 1.26701192E-04 0.00000000E+00
 4 17 1.31278014E-07 4.14718382E-08 0.00000000E+00-3.88394754E-05 0.00000000E+00
 4 18 6.61212226E-05 0.00000000E+00 0.00000000E+00 0.00000000E+00-1.51726665E-07
 4 19-7.88789376E-08 7.88763994E-08 0.00000000E+00 0.00000000E+00-3.66023047E-05
 4 20-7.73694019E-06-6.56099438E-05 9.29711507E-05 1.86846190E-04-1.05182822E-05
 4 21 1.72504037E-05 0.00000000E+00 3.01431889E-05-5.11795322E-05 0.00000000E+00
 4 22 1.11830625E-04-2.00527884E-04 0.00000000E+00 9.40273809E-07-1.00582296E-05
 4 23 9.11795583E-06 1.40324113E-05 0.00000000E+00 0.00000000E+00-9.31751483E-06
 4 24 6.26384793E-05-5.33209645E-05-8.17829014E-05 0.00000000E+00 0.00000000E+00
 4 25 2.97355093E-06 5.55957981E-06 0.00000000E+00-4.94856050E-06 0.00000000E+00
 4 26-3.37988798E-06 0.00000000E+00-6.09549238E-07-2.51039853E-06 0.00000000E+00
 4 27 7.71474105E-06 6.54217002E-05-9.27043977E-05-1.86310104E-04 1.04929376E-05
 4 28 1.71981231E-05 0.00000000E+00-3.00618506E-05-5.10297234E-05 0.00000000E+00
 4 29-1.11475664E-04-1.99972228E-04 0.00000000E+00-9.24465854E-07 1.00162619E-05
 4 30-9.09179606E-06 1.40008958E-05 0.00000000E+00 0.00000000E+00 9.24830749E-06
 4 31-6.24162873E-05 5.31679798E-05-8.15765699E-05 0.00000000E+00 0.00000000E+00
 4 32-2.97496794E-06 5.59727681E-06 0.00000000E+00-4.99606349E-06 0.00000000E+00
 4 33 3.36574005E-06 0.00000000E+00 6.25598281E-07-2.51347138E-06 0.00000000E+00
 4 34 2.21981004E-08 1.88245566E-07-2.66746906E-07-5.36092759E-07-5.79555750E-08
 4 35-9.72020869E-07 0.00000000E+00 1.70411057E-07 1.03448114E-06 0.00000000E+00
 4 36 6.58693424E-07-6.86112649E-06 0.00000000E+00 5.11684018E-08-2.50053602E-08
 4 37-2.61630416E-08 3.04703256E-06 0.00000000E+00 0.00000000E+00-3.04088836E-07
 4 38 1.51104532E-07 1.52984304E-07-9.86941377E-06 0.00000000E+00 0.00000000E+00
 4 39-1.05543094E-08-6.34624359E-06 0.00000000E+00 1.20960328E-05 0.00000000E+00
 4 40 8.79604717E-09 0.00000000E+00 5.36404477E-09-3.58165351E-06 0.00000000E+00
 5  1-0.00000000E+00-0.00000000E+00-0.00000000E+00-0.00000000E+00-0.00000000E+00
 5  2-0.00000000E+00-0.00000000E+00-0.00000000E+00-0.00000000E+00-0.00000000E+00
 5  3-0.00000000E+00 9.93406350E-01-0.00000000E+00-0.00000000E+00 1.32670611E-02
 5  4-0.00000000E+00-0.00000000E+00 4.37527973E-03-0.00000000E+00-0.00000000E+00
 5  5-4.39622876E-03-0.00000000E+00-0.00000000E+00 2.25690755E-03-0.00000000E+00
 5  6-0.00000000E+00-1.09702916E-03-0.00000000E+00-0.00000000E+00 2.94916277E-04
 5  7-0.00000000E+00-0.00000000E+00-0.00000000E+00-0.00000000E+00-0.00000000E+00
 5  8-0.00000000E+00-0.00000000E+00-0.00000000E+00-0.00000000E+00-0.00000000E+00
 5  9-2.00546696E-11-0.00000000E+00-0.00000000E+00-0.00000000E+00-0.00000000E+00
 5 10-0.00000000E+00-0.00000000E+00-0.00000000E+00-0.00000000E+00-0.00000000E+00
 5 11-0.00000000E+00-0.00000000E+00-0.00000000E+00-0.00000000E+00-0.00000000E+00
 5 12-0.00000000E+00-0.00000000E+00-0.00000000E+00-0.00000000E+00-0.00000000E+00
 5 13-0.00000000E+00-0.00000000E+00 3.01710730E-07-0.00000000E+00-2.02404504E-07
 5 14-0.00000000E+00-2.02382917E-07-0.00000000E+00-0.00000000E+00-0.00000000E+00
 5 15-0.00000000E+00-0.00000000E+00 1.21499697E-05-0.00000000E+00-8.15042991E-06
 5 16-0.00000000E+00-8.15046497E-06-0.00000000E+00-0.00000000E+00-0.00000000E+00
 5 17-0.00000000E+00-0.00000000E+00-0.00000000E+00-0.00000000E+00-7.15857576E-06
 5 18-0.00000000E+00-0.00000000E+00-0.00000000E+00-0.00000000E+00-0.00000000E+00
 5 19-0.00000000E+00-0.00000000E+00-0.00000000E+00 9.60423231E-06-0.00000000E+00
 5 20-0.00000000E+00-0.00000000E+00-0.00000000E+00-0.00000000E+00-0.00000000E+00
 5 21-0.00000000E+00-4.44835949E-06-0.00000000E+00-0.00000000E+00 1.17105518E-05
 5 22-0.00000000E+00-0.00000000E+00-1.08764030E-05-0.00000000E+00-0.00000000E+00
 5 23-0.00000000E+00-0.00000000E+00-3.62081395E-06 6.27144606E-06-0.00000000E+00
 5 24-0.00000000E+00-0.00000000E+00-0.00000000E+00 1.16402761E-05-2.01615543E-05
 5 25-0.00000000E+00-0.00000000E+00-6.32043997E-06-0.00000000E+00 7.20951507E-07
 5 26-0.00000000E+00 7.75880855E-06-0.00000000E+00-0.00000000E+00-7.03787768E-06
 5 27-0.00000000E+00-0.00000000E+00-0.00000000E+00-0.00000000E+00-0.00000000E+00
 5 28-0.00000000E+00-4.44835947E-06-0.00000000E+00-0.00000000E+00 1.17105517E-05
 5 29-0.00000000E+00-0.00000000E+00-1.08764023E-05-0.00000000E+00-0.00000000E+00
 5 30-0.00000000E+00-0.00000000E+00-3.62081414E-06-6.27144667E-06-0.00000000E+00
 5 31-0.00000000E+00-0.00000000E+00-0.00000000E+00 1.16402759E-05 2.01615551E-05
 5 32-0.00000000E+00-0.00000000E+00-6.32043959E-06-0.00000000E+00 7.20950081E-07
 5 33-0.00000000E+00 7.75880946E-06-0.00000000E+00-0.00000000E+00 7.03787700E-06
 5 34-0.00000000E+00-0.00000000E+00-0.00000000E+00-0.00000000E+00-0.00000000E+00
 5 35-0.00000000E+00-4.44838099E-06-0.00000000E+00-0.00000000E+00 1.17105556E-05
 5 36-0.00000000E+00-0.00000000E+00-1.08763761E-05-0.00000000E+00-0.00000000E+00
 5 37-0.00000000E+00-0.00000000E+00 7.24163680E-06-0.00000000E+00-0.00000000E+00
 5 38-0.00000000E+00-0.00000000E+00-0.00000000E+00-2.32805556E-05-0.00000000E+00
 5 39-0.00000000E+00-0.00000000E+00-6.32045329E-06-0.00000000E+00 1.12777736E-05
 5 40-0.00000000E+00-2.79799566E-06-0.00000000E+00-0.00000000E+00-0.00000000E+00
 6  1 1.88492590E-10 2.09724081E-10 4.02072037E-09 2.93546738E-09-6.27482515E-09
 6  2 3.86070534E-09-6.84282891E-09-8.12217507E-09 8.55285824E-09 2.94129127E-07
 6  3-2.71523963E-06-0.00000000E+00-7.81162503E-07 7.21125936E-06-0.00000000E+00
 6  4-1.96708655E-06 1.81590693E-05-0.00000000E+00 7.33502189E-06-6.77127598E-05
 6  5-0.00000000E+00-1.33661149E-05 1.23388042E-04-0.00000000E+00 2.10690105E-05
 6  6-1.94496546E-04-0.00000000E+00-1.21798284E-05 1.12437480E-04-0.00000000E+00
 6  7 2.12082508E-06-2.12182385E-06 9.98661103E-10 2.26125894E-05-0.00000000E+00
 6  8-0.00000000E+00-4.41346227E-06 4.41544615E-06-1.98381384E-09-4.70564638E-05
 6  9-0.00000000E+00-0.00000000E+00 1.28992386E-06-1.28977176E-06-1.52010204E-10
 6 10 1.37491500E-05-0.00000000E+00-0.00000000E+00 2.50672561E-06-2.51093400E-06
 6 11 4.20881294E-09 2.67429969E-05-0.00000000E+00-0.00000000E+00-6.14188472E-06
 6 12 6.14476184E-06-2.87651269E-09-6.54851377E-05-0.00000000E+00-0.00000000E+00
 6 13-1.46601792E-07 1.35822713E-06-0.00000000E+00 6.07426346E-07-0.00000000E+00
 6 14-6.65045352E-08-0.00000000E+00 2.63191479E-07-2.42967927E-06-0.00000000E+00
 6 15 9.94806091E-07-9.21034529E-06-0.00000000E+00-4.11895020E-06-0.00000000E+00
 6 16 4.50099805E-07-0.00000000E+00-1.78477223E-06 1.64759251E-05-0.00000000E+00
 6 17 9.84200315E-07 4.07125193E-07-4.61273891E-10-7.69790399E-06-0.00000000E+00
 6 18 1.17249083E-05-0.00000000E+00-0.00000000E+00-0.00000000E+00-1.22242001E-06
 6 19-5.06446073E-07 5.07255703E-07-0.00000000E+00-0.00000000E+00-5.40279327E-06
 6 20 7.45240000E-01 6.09873360E-03 8.40059392E-04-2.16555072E-04 2.47142928E-04
 6 21-4.24453759E-04-0.00000000E+00-9.59763018E-05 1.62276429E-04-0.00000000E+00
 6 22 6.95363536E-05-1.06130504E-04-0.00000000E+00-9.10226007E-07-1.65451624E-05
 6 23 1.74553884E-05 1.54289515E-05-0.00000000E+00-0.00000000E+00-4.33771569E-06
 6 24 2.10911721E-05-1.67534564E-05-2.50145321E-05-0.00000000E+00-0.00000000E+00
 6 25-6.35881451E-06-5.72551207E-06-0.00000000E+00-2.95229287E-06-0.00000000E+00
 6 26 1.48109953E-05-0.00000000E+00-6.27975037E-06 1.06338734E-05-0.00000000E+00
 6 27-6.57441928E-01-5.38023183E-03-7.41088269E-04 1.91045963E-04-2.18932788E-04
 6 28-3.73924689E-04-0.00000000E+00 8.56630264E-05 1.42584399E-04-0.00000000E+00
 6 29-6.49343769E-05-9.15495446E-05-0.00000000E+00 7.58321308E-07 1.46407249E-05
 6 30-1.53990462E-05 1.35812585E-05-0.00000000E+00-0.00000000E+00 3.91639839E-06
 6 31-1.86962048E-05 1.47798064E-05-2.20069408E-05-0.00000000E+00-0.00000000E+00
 6 32 5.57551781E-06-4.90433536E-06-0.00000000E+00-2.76607644E-06-0.00000000E+00
 6 33-1.30813046E-05-0.00000000E+00 5.60096245E-06 9.34593279E-06-0.00000000E+00
 6 34-8.76896353E-02-7.17616000E-04-9.88454446E-05 2.54833991E-05 5.77927322E-05
 6 35 4.44415049E-06-0.00000000E+00-2.21827801E-05-4.87387629E-06-0.00000000E+00
 6 36 1.49035867E-05 1.76151270E-05-0.00000000E+00 2.84842117E-06-7.94456051E-07
 6 37-2.05396512E-06-2.53550369E-07-0.00000000E+00-0.00000000E+00-3.94101577E-06
 6 38 1.96954607E-06 1.97146971E-06 5.09985857E-07-0.00000000E+00-0.00000000E+00
 6 39 1.97362220E-06-3.72007878E-07-0.00000000E+00 7.98220383E-07-0.00000000E+00
 6 40-1.19472974E-06-0.00000000E+00-1.45316230E-06-2.99119441E-07-0.00000000E+00
 7  1-3.06041406E-10-2.44716658E-10-6.22348259E-09-4.37497285E-09 9.51628841E-09
 7  2-6.04158619E-09 1.05910435E-08 1.23136395E-08-1.30628917E-08-2.71525425E-06
 7  3-2.94127647E-07-0.00000000E+00 7.21132927E-06 7.81154698E-07-0.00000000E+00
 7  4 1.81588866E-05 1.96711021E-06-0.00000000E+00-6.77125445E-05-7.33505309E-06
 7  5-0.00000000E+00 1.23387769E-04 1.33661535E-05-0.00000000E+00-1.94496427E-04
 7  6-2.10690319E-05-0.00000000E+00 1.12437499E-04 1.21798358E-05-0.00000000E+00
 7  7-1.95822643E-05 1.95838207E-05-1.55540463E-09 2.44949917E-06-0.00000000E+00
 7  8-0.00000000E+00 4.07505918E-05-4.07536031E-05 3.01085937E-09-5.09737267E-06
 7  9-0.00000000E+00-0.00000000E+00-1.19072765E-05 1.19070417E-05 2.34002467E-10
 7 10 1.48938273E-06-0.00000000E+00-0.00000000E+00-2.31568500E-05 2.31633055E-05
 7 11-6.45932428E-09 2.89695009E-06-0.00000000E+00-0.00000000E+00 5.67096010E-05
 7 12-5.67139932E-05 4.38770053E-09-7.09370078E-06-0.00000000E+00-0.00000000E+00
 7 13 1.35741025E-06 1.47138773E-07-0.00000000E+00 6.57844465E-08-0.00000000E+00
 7 14 6.08517883E-07-0.00000000E+00-2.42967484E-06-2.63191825E-07-0.00000000E+00
 7 15-9.20585993E-06-9.97721039E-07-0.00000000E+00-4.46189894E-07-0.00000000E+00
 7 16-4.12495448E-06-0.00000000E+00 1.64759116E-05 1.78477313E-06-0.00000000E+00
 7 17-9.08683584E-06-3.75961284E-06 7.06782291E-10-8.33890907E-07-0.00000000E+00
 7 18 1.27011899E-06-0.00000000E+00-0.00000000E+00-0.00000000E+00 1.12837855E-05
 7 19 4.67833326E-06-4.67957390E-06-0.00000000E+00-0.00000000E+00-5.85261393E-07
 7 20-3.29001882E-01-2.69241375E-03-3.70863115E-04 9.56007407E-05-1.04874748E-04
 7 21 1.89827368E-04-0.00000000E+00 3.77299347E-05-7.43198853E-05-0.00000000E+00
 7 22-1.39262704E-05 5.65394715E-05-0.00000000E+00 6.10856778E-07 7.09513174E-06
 7 23-7.70598851E-06-6.95091737E-06-0.00000000E+00-0.00000000E+00 1.49462565E-06
 7 24-8.89063193E-06 7.39600628E-06 1.13238255E-05-0.00000000E+00-0.00000000E+00
 7 25 2.96647646E-06 3.21239438E-06-0.00000000E+00 5.49020799E-07-0.00000000E+00
 7 26-6.46741342E-06-0.00000000E+00 2.48746760E-06-4.85890013E-06-0.00000000E+00
 7 27-4.80947399E-01-3.93587259E-03-5.42141022E-04 1.39754131E-04-1.55362374E-04
 7 28-2.76311662E-04-0.00000000E+00 5.74060045E-05 1.07343891E-04-0.00000000E+00
 7 29-2.84928610E-05-7.79532183E-05-0.00000000E+00 7.91600226E-07 1.04733327E-05
 7 30-1.12649330E-05 1.00934279E-05-0.00000000E+00-0.00000000E+00 2.38872558E-06
 7 31-1.32006773E-05 1.08119518E-05-1.64174929E-05-0.00000000E+00-0.00000000E+00
 7 32 4.25926341E-06-4.36387808E-06-0.00000000E+00-1.16849555E-06-0.00000000E+00
 7 33-9.48887475E-06-0.00000000E+00 3.77447324E-06 7.02325237E-06-0.00000000E+00
 7 34 8.09783538E-01 6.62693247E-03 9.12811972E-04-2.35315504E-04-5.33697102E-04
 7 35 4.81411113E-07-0.00000000E+00 2.04851109E-04-5.27959762E-07-0.00000000E+00
 7 36-1.37645659E-04 1.90817135E-06-0.00000000E+00-2.63046547E-05 7.33733981E-06
 7 37 1.89673149E-05-2.74692948E-08-0.00000000E+00-0.00000000E+00 3.63951038E-05
 7 38-1.81904820E-05-1.82046218E-05 5.52190262E-08-0.00000000E+00-0.00000000E+00
 7 39-1.82253320E-05-4.03120591E-08-0.00000000E+00 8.64863224E-08-0.00000000E+00
 7 40 1.10331028E-05-0.00000000E+00 1.34187460E-05-3.24020197E-08-0.00000000E+00
 8  1 2.94709315E-06 3.54144886E-06 6.37092955E-05 4.68531351E-05-1.00002161E-04
 8  2 6.13958178E-05-1.08942302E-04-1.29528335E-04 1.36214633E-04-3.38357307E-10
 8  3 1.42287774E-10-0.00000000E+00 8.75759905E-10-3.77954425E-10-0.00000000E+00
 8  4 1.69670346E-09-9.48521607E-10-0.00000000E+00-6.69069111E-09 3.54035556E-09
 8  5-0.00000000E+00 1.24982329E-08-6.45552392E-09-0.00000000E+00-1.97701964E-08
 8  6 1.01818533E-08-0.00000000E+00 1.17578024E-08-5.89159326E-09-0.00000000E+00
 8  7-7.93697953E-06-7.93294685E-06 1.58699264E-05-1.18481752E-09-0.00000000E+00
 8  8-0.00000000E+00 1.58367698E-05 1.58283547E-05-3.16651245E-05 2.46596678E-09
 8  9-0.00000000E+00-0.00000000E+00 1.21857458E-06 1.22125428E-06-2.43982887E-06
 8 10-7.22876325E-10-0.00000000E+00-0.00000000E+00-3.35325652E-05-3.35282441E-05
 8 11 6.70608093E-05-1.39450489E-09-0.00000000E+00-0.00000000E+00 2.29210592E-05
 8 12 2.29093887E-05-4.58304479E-05 3.43074527E-09-0.00000000E+00-0.00000000E+00
 8 13 8.55503821E-06-7.55282984E-11-0.00000000E+00-2.55078252E-11-0.00000000E+00
 8 14-1.14776026E-05-0.00000000E+00-1.71660012E-10 1.26839671E-10-0.00000000E+00
 8 15-4.64452536E-05 4.84710875E-10-0.00000000E+00 2.11117713E-10-0.00000000E+00
 8 16 6.23112100E-05-0.00000000E+00 1.63737042E-09-8.61425592E-10-0.00000000E+00
 8 17-2.76688610E-06-2.76635361E-06-7.37584645E-06 4.06131077E-10-0.00000000E+00
 8 18-6.15392482E-10-0.00000000E+00-0.00000000E+00-0.00000000E+00-1.61838005E-06
 8 19 6.47874787E-06 6.47781249E-06-0.00000000E+00-0.00000000E+00 2.80753636E-10
 8 20 5.75913354E-01 4.70445156E-03 6.67455158E-04-1.36492667E-04 1.90654742E-04
 8 21-3.30223114E-04-0.00000000E+00-7.34252558E-05 1.27175704E-04-0.00000000E+00
 8 22 6.61044797E-05-1.14494050E-04-0.00000000E+00 2.54550271E-07-1.28113319E-05
 8 23 1.25567817E-05 1.30658380E-05-0.00000000E+00-0.00000000E+00-6.11336400E-06
 8 24 1.77204252E-05-1.16070612E-05-2.38337487E-05-0.00000000E+00-0.00000000E+00
 8 25-5.40923207E-06-4.16082591E-06-0.00000000E+00-1.86085698E-06-0.00000000E+00
 8 26 1.15546050E-05-0.00000000E+00-4.29735865E-06 7.44319072E-06-0.00000000E+00
 8 27 5.75986803E-01 4.70505263E-03 6.67537955E-04-1.36514018E-04 1.90679152E-04
 8 28 3.30264924E-04-0.00000000E+00-7.34347696E-05-1.27191673E-04-0.00000000E+00
 8 29 6.61115244E-05 1.14504395E-04-0.00000000E+00 2.54450624E-07-1.28129595E-05
 8 30 1.25585089E-05-1.30673642E-05-0.00000000E+00-0.00000000E+00-6.11378772E-06
 8 31 1.77224962E-05-1.16087085E-05 2.38362137E-05-0.00000000E+00-0.00000000E+00
 8 32-5.40986566E-06 4.16138808E-06-0.00000000E+00 1.86114945E-06-0.00000000E+00
 8 33 1.15560715E-05-0.00000000E+00-4.29797505E-06-7.44423743E-06-0.00000000E+00
 8 34 5.76074852E-01 4.70577317E-03 6.67637333E-04-1.36540077E-04-3.81415376E-04
 8 35-2.31395620E-10-0.00000000E+00 1.46890923E-04 2.56984563E-10-0.00000000E+00
 8 36-1.32234131E-04-9.23040313E-10-0.00000000E+00-1.93494793E-05 6.78891407E-06
 8 37 1.25605652E-05-0.00000000E+00-0.00000000E+00-0.00000000E+00 2.96444809E-05
 8 38-1.80338230E-05-1.16106579E-05-2.32823673E-11-0.00000000E+00-0.00000000E+00
 8 39-1.26197221E-05 2.25004753E-11-0.00000000E+00-4.89380856E-11-0.00000000E+00
 8 40 8.33379839E-06-0.00000000E+00 8.59733551E-06 1.87505302E-11-0.00000000E+00
 9  1 1.50968784E-01-5.43096917E-01 1.11282930E+00 4.61022405E-03-2.08927448E-04
 9  2 3.49123457E-03-1.62899684E-03 4.86237622E-04-9.86912751E-05-1.32908789E-10
 9  3 0.00000000E+00 0.00000000E+00 2.62593767E-10-1.54536654E-11 0.00000000E+00
 9  4-9.37796449E-11 0.00000000E+00 0.00000000E+00 3.41831602E-10-1.14559135E-11
 9  5 0.00000000E+00-4.64120497E-10 0.00000000E+00 0.00000000E+00 4.31208949E-10
 9  6 0.00000000E+00 0.00000000E+00 2.19833596E-10-4.37213974E-11 0.00000000E+00
 9  7 3.26186222E-04 3.26186394E-04-6.52372616E-04 0.00000000E+00 0.00000000E+00
 9  8 0.00000000E+00 5.24888356E-05 5.24886812E-05-1.04977517E-04 0.00000000E+00
 9  9 0.00000000E+00 0.00000000E+00-3.72775522E-05-3.72773736E-05 7.45549259E-05
 9 10 0.00000000E+00 0.00000000E+00 0.00000000E+00-2.92681718E-06-2.92715036E-06
 9 11 5.85396754E-06 2.16444000E-11 0.00000000E+00 0.00000000E+00 4.62758945E-06
 9 12 4.62754732E-06-9.25513677E-06 0.00000000E+00 0.00000000E+00 0.00000000E+00
 9 13 7.64589626E-06 0.00000000E+00 0.00000000E+00 0.00000000E+00 0.00000000E+00
 9 14-1.02580422E-05 0.00000000E+00 0.00000000E+00 0.00000000E+00 0.00000000E+00
 9 15-3.00409173E-05 0.00000000E+00 0.00000000E+00 0.00000000E+00 0.00000000E+00
 9 16 4.03041819E-05 0.00000000E+00-5.74419463E-11 0.00000000E+00 0.00000000E+00
 9 17-8.02262112E-06-8.02264319E-06-2.13937330E-05 0.00000000E+00 0.00000000E+00
 9 18 0.00000000E+00 0.00000000E+00 0.00000000E+00 0.00000000E+00-4.69761391E-06
 9 19 1.87903117E-05 1.87903504E-05 0.00000000E+00 0.00000000E+00 0.00000000E+00
 9 20 1.42053762E-06-1.91996944E-05 4.34575705E-05-3.55333099E-05-4.16387489E-06
 9 21 7.21198099E-06 0.00000000E+00 8.68113368E-06-1.50363136E-05 0.00000000E+00
 9 22-1.29529339E-06 2.24343381E-06 0.00000000E+00-2.24863171E-07 2.92516869E-06
 9 23-2.70030552E-06-3.15010341E-06 0.00000000E+00 0.00000000E+00-6.73720462E-07
 9 24-1.60903114E-08 6.89810774E-07-6.57474986E-07 0.00000000E+00 0.00000000E+00
 9 25 3.94390961E-06 3.21282249E-06 0.00000000E+00 1.43684440E-06 0.00000000E+00
 9 26-8.60953388E-06 0.00000000E+00 3.31822388E-06-5.74729809E-06 0.00000000E+00
 9 27 1.42054222E-06-1.91997106E-05 4.34576516E-05-3.55334449E-05-4.16387970E-06
 9 28-7.21199089E-06 0.00000000E+00 8.68114878E-06 1.50363341E-05 0.00000000E+00
 9 29-1.29531995E-06-2.24348619E-06 0.00000000E+00-2.24866377E-07 2.92517302E-06
 9 30-2.70030665E-06 3.15010678E-06 0.00000000E+00 0.00000000E+00-6.73716162E-07
 9 31-1.60986331E-08 6.89814795E-07 6.57464846E-07 0.00000000E+00 0.00000000E+00
 9 32 3.94390859E-06-3.21282365E-06 0.00000000E+00-1.43685164E-06 0.00000000E+00
 9 33-8.60953597E-06 0.00000000E+00 3.31822736E-06 5.74730689E-06 0.00000000E+00
 9 34 1.42070958E-06-1.91997379E-05 4.34578404E-05-3.55339869E-05 8.32766998E-06
 9 35 0.00000000E+00 0.00000000E+00-1.73624432E-05 0.00000000E+00 0.00000000E+00
 9 36 2.59081926E-06 0.00000000E+00 0.00000000E+00 4.50031751E-06-1.79994128E-06
 9 37-2.70037623E-06 0.00000000E+00 0.00000000E+00 0.00000000E+00 3.12514284E-07