 !Step 2: single point gmcpt calculation averaging 10 states
 !        for FeF4- at optimized geometry. The UHF orbitals at
 !        the MP2 optimized structure is taken as the initial
 !        guess of orbitals in the $VEC group. 
 $system kdiag=3 mwords=100 memddi=1000 parall=.t. $end
 $contrl runtyp=energy ispher=1 $end
 $contrl icut=9 itol=20 inttyp=rysquad qmttol=1.0d-05 nosym=0 $end
 $scf    npunch=2 conv=1.0d-06 dirscf=.t. diis=.f. soscf=.t. ethrsh=10.0 $end
 $contrl scftyp=rohf  mult=6 maxit=200 icharg=1 $end
 $guess  guess=moread norb=158 purify=.t. norder=1
         iorder(16)=25,26,27,28,29
         iorder(25)=16,17,18,19,20 $end
 $basis  gbasis=cct $end
 $mcscf  cistep=gmcci fullnr=.t. finci=mos
         acurcy=1.d-6 maxit=100 $end
 $trans  dirtrf=.t. $end
 $mrmp   mrpt=gmcpt rdvecs=.f. $end
 $gmcpt  nmofzc=27 nmodoc=0 nmoact=5 nelact=5 stsym(1)=A nsolut=100
         reftyp=ormas nspace=1 mstart(1)=28 mine(1)=5 maxe(1)=5
         kstate(1)=1
         wstate(1)=1
         iwgt=0 thrwgt=-1.0 krot=.f. kszdoe=.f. knospn=.f.
         thrde=-1.0 edshft=0.02 $end
 $statpt hssend=.t. $end
 $data
 FeH4- 10 states calculation at opt geometry.
 dnh 3

 Co     27.0   0.0  0.0  0.0
 F       9.0   1.715  0.0  0.0
 $end
--- OPEN SHELL ORBITALS --- GENERATED AT Mon Mar 13 12:29:52 2023
 FeH4- 10 states calculation at opt geometry.                                   
E(ROHF)=    -1661.2939022693, E(NUC)=  268.2284123203,   14 ITERS
 $VEC   
 1  1 9.82352209E-01-1.87045018E-01-3.91249188E-04 8.15104840E-05-3.71420919E-05
 1  2 5.28426702E-05 2.19416395E-06 0.00000000E+00 0.00000000E+00 0.00000000E+00
 1  3 0.00000000E+00 0.00000000E+00 0.00000000E+00 0.00000000E+00 0.00000000E+00
 1  4 0.00000000E+00 0.00000000E+00 0.00000000E+00 0.00000000E+00 0.00000000E+00
 1  5 0.00000000E+00 0.00000000E+00 0.00000000E+00 0.00000000E+00 0.00000000E+00
 1  6-6.72645644E-07-6.72645644E-07 1.34529129E-06 0.00000000E+00 0.00000000E+00
 1  7 0.00000000E+00-9.08615325E-07-9.08615325E-07 1.81723065E-06 0.00000000E+00
 1  8 0.00000000E+00 0.00000000E+00-2.86137285E-07-2.86137285E-07 5.72274571E-07
 1  9 0.00000000E+00 0.00000000E+00 0.00000000E+00 3.24414299E-07 3.24414299E-07
 1 10-6.48828599E-07 0.00000000E+00 0.00000000E+00 0.00000000E+00 1.96151642E-07
 1 11 0.00000000E+00 0.00000000E+00 0.00000000E+00 0.00000000E+00-2.63165044E-07
 1 12 0.00000000E+00 0.00000000E+00 0.00000000E+00 0.00000000E+00-9.78793773E-07
 1 13 0.00000000E+00 0.00000000E+00 0.00000000E+00 0.00000000E+00 1.31318965E-06
 1 14 0.00000000E+00 0.00000000E+00 0.00000000E+00 0.00000000E+00-2.10620935E-08
 1 15-2.10620935E-08-5.61655827E-08 0.00000000E+00 0.00000000E+00 0.00000000E+00
 1 16 0.00000000E+00 0.00000000E+00 0.00000000E+00-1.23326992E-08 4.93307966E-08
 1 17 4.93307966E-08 0.00000000E+00 0.00000000E+00 0.00000000E+00-6.09139782E-07
 1 18-1.09139400E-06-4.23119057E-08 1.65408786E-06-2.14534020E-07 3.71583823E-07
 1 19 0.00000000E+00 2.25219176E-07-3.90091055E-07 0.00000000E+00 5.76270345E-07
 1 20-9.98129516E-07 0.00000000E+00 9.14980348E-08-4.57794252E-07 3.66296217E-07
 1 21 5.49292286E-07 0.00000000E+00 0.00000000E+00-2.49361948E-07 1.26009742E-06
 1 22-1.01073547E-06-1.50945937E-06 0.00000000E+00 0.00000000E+00-3.13164848E-07
 1 23-2.42230829E-07 0.00000000E+00-1.08328920E-07 0.00000000E+00 6.70329658E-07
 1 24 0.00000000E+00-2.50174925E-07 4.33315680E-07 0.00000000E+00-6.09139782E-07
 1 25-1.09139400E-06-4.23119057E-08 1.65408786E-06-2.14534020E-07-3.71583823E-07
 1 26 0.00000000E+00 2.25219176E-07 3.90091055E-07 0.00000000E+00 5.76270345E-07
 1 27 9.98129516E-07 0.00000000E+00 9.14980348E-08-4.57794252E-07 3.66296217E-07
 1 28-5.49292286E-07 0.00000000E+00 0.00000000E+00-2.49361948E-07 1.26009742E-06
 1 29-1.01073547E-06 1.50945937E-06 0.00000000E+00 0.00000000E+00-3.13164848E-07
 1 30 2.42230829E-07 0.00000000E+00 1.08328920E-07 0.00000000E+00 6.70329658E-07
 1 31 0.00000000E+00-2.50174925E-07-4.33315680E-07 0.00000000E+00-6.09139782E-07
 1 32-1.09139400E-06-4.23119057E-08 1.65408786E-06 4.29068041E-07 0.00000000E+00
 1 33 0.00000000E+00-4.50438351E-07 0.00000000E+00 0.00000000E+00-1.15254069E-06
 1 34 0.00000000E+00 0.00000000E+00-7.32440395E-07 3.66144178E-07 3.66296217E-07
 1 35 0.00000000E+00 0.00000000E+00 0.00000000E+00 2.01482711E-06-1.00409163E-06
 1 36-1.01073547E-06 0.00000000E+00 0.00000000E+00 0.00000000E+00-7.32720952E-07
 1 37 0.00000000E+00 0.00000000E+00 0.00000000E+00 0.00000000E+00 4.82698465E-07
 1 38 0.00000000E+00 5.00349849E-07 0.00000000E+00 0.00000000E+00
 2  1 1.87037322E-01 9.82321664E-01-2.68178342E-04-5.44688654E-04 3.50117271E-04
 2  2-2.68978529E-04-1.72498353E-05 0.00000000E+00 0.00000000E+00 0.00000000E+00
 2  3 0.00000000E+00 0.00000000E+00 0.00000000E+00 0.00000000E+00 0.00000000E+00
 2  4 0.00000000E+00 0.00000000E+00 0.00000000E+00 0.00000000E+00 0.00000000E+00
 2  5 0.00000000E+00 0.00000000E+00 0.00000000E+00 0.00000000E+00 0.00000000E+00
 2  6 3.10740450E-05 3.10740450E-05-6.21480900E-05 0.00000000E+00 0.00000000E+00
 2  7 0.00000000E+00 9.84085252E-06 9.84085252E-06-1.96817050E-05 0.00000000E+00
 2  8 0.00000000E+00 0.00000000E+00 2.14253196E-05 2.14253196E-05-4.28506392E-05
 2  9 0.00000000E+00 0.00000000E+00 0.00000000E+00-5.38115831E-06-5.38115831E-06
 2 10 1.07623166E-05 0.00000000E+00 0.00000000E+00 0.00000000E+00 5.47083536E-06
 2 11 0.00000000E+00 0.00000000E+00 0.00000000E+00 0.00000000E+00-7.33989585E-06
 2 12 0.00000000E+00 0.00000000E+00 0.00000000E+00 0.00000000E+00 7.06810136E-06
 2 13 0.00000000E+00 0.00000000E+00 0.00000000E+00 0.00000000E+00-9.48285306E-06
 2 14 0.00000000E+00 0.00000000E+00 0.00000000E+00 0.00000000E+00 7.84685471E-07
 2 15 7.84685471E-07 2.09249459E-06 0.00000000E+00 0.00000000E+00 0.00000000E+00
 2 16 0.00000000E+00 0.00000000E+00 0.00000000E+00 4.59464765E-07-1.83785906E-06
 2 17-1.83785906E-06 0.00000000E+00 0.00000000E+00 0.00000000E+00 5.85930102E-06
 2 18 6.26303591E-05 1.85786269E-05 1.05747337E-05 2.28540766E-05-3.95844219E-05
 2 19 0.00000000E+00 2.15856472E-05-3.73874377E-05 0.00000000E+00 3.43493883E-09
 2 20-5.94948859E-09 0.00000000E+00-6.65822361E-07 3.49619884E-06-2.83037648E-06
 2 21-4.16202120E-06 0.00000000E+00 0.00000000E+00 1.96385380E-06-1.01932006E-05
 2 22 8.22934678E-06 1.21570544E-05 0.00000000E+00 0.00000000E+00 3.07202838E-06
 2 23 2.41424349E-06 0.00000000E+00 1.07968251E-06 0.00000000E+00-6.61497853E-06
 2 24 0.00000000E+00 2.49341996E-06-4.31873005E-06 0.00000000E+00 5.85930102E-06
 2 25 6.26303591E-05 1.85786269E-05 1.05747337E-05 2.28540766E-05 3.95844219E-05
 2 26 0.00000000E+00 2.15856472E-05 3.73874377E-05 0.00000000E+00 3.43493884E-09
 2 27 5.94948860E-09 0.00000000E+00-6.65822361E-07 3.49619884E-06-2.83037648E-06
 2 28 4.16202120E-06 0.00000000E+00 0.00000000E+00 1.96385380E-06-1.01932006E-05
 2 29 8.22934678E-06-1.21570544E-05 0.00000000E+00 0.00000000E+00 3.07202838E-06
 2 30-2.41424349E-06 0.00000000E+00-1.07968251E-06 0.00000000E+00-6.61497853E-06
 2 31 0.00000000E+00 2.49341996E-06 4.31873005E-06 0.00000000E+00 5.85930102E-06
 2 32 6.26303591E-05 1.85786269E-05 1.05747337E-05-4.57081532E-05 0.00000000E+00
 2 33 0.00000000E+00-4.31712945E-05 0.00000000E+00 0.00000000E+00-6.86987767E-09
 2 34 0.00000000E+00 0.00000000E+00 5.57720944E-06-2.74683296E-06-2.83037648E-06
 2 35 0.00000000E+00 0.00000000E+00 0.00000000E+00-1.62717278E-05 8.04238100E-06
 2 36 8.22934678E-06 0.00000000E+00 0.00000000E+00 0.00000000E+00 7.25362077E-06
 2 37 0.00000000E+00 0.00000000E+00 0.00000000E+00 0.00000000E+00-4.74491356E-06
 2 38 0.00000000E+00-4.98683991E-06 0.00000000E+00 0.00000000E+00
 3  1 0.00000000E+00 0.00000000E+00 0.00000000E+00 0.00000000E+00 0.00000000E+00
 3  2 0.00000000E+00 0.00000000E+00 9.99996206E-01 0.00000000E+00 0.00000000E+00
 3  3 2.31536307E-04 0.00000000E+00 0.00000000E+00 1.92169683E-03 0.00000000E+00
 3  4 0.00000000E+00 2.15619137E-03 0.00000000E+00 0.00000000E+00-4.80285260E-05
 3  5 0.00000000E+00 0.00000000E+00 1.53369232E-05 0.00000000E+00 0.00000000E+00
 3  6 1.56952925E-05-1.56952925E-05 0.00000000E+00 0.00000000E+00 0.00000000E+00
 3  7 0.00000000E+00 3.30746280E-05-3.30746280E-05 0.00000000E+00 0.00000000E+00
 3  8 0.00000000E+00 0.00000000E+00 1.84846817E-05-1.84846817E-05 0.00000000E+00
 3  9 0.00000000E+00 0.00000000E+00 0.00000000E+00-6.82612170E-06 6.82612170E-06
 3 10 0.00000000E+00 0.00000000E+00 0.00000000E+00 0.00000000E+00 1.44139847E-05
 3 11 0.00000000E+00 0.00000000E+00 0.00000000E+00 0.00000000E+00 6.44612991E-06
 3 12 0.00000000E+00-2.57845196E-05 0.00000000E+00 0.00000000E+00-7.50792883E-06
 3 13 0.00000000E+00 0.00000000E+00 0.00000000E+00 0.00000000E+00-3.35764785E-06
 3 14 0.00000000E+00 1.34305914E-05 0.00000000E+00 0.00000000E+00 3.21673099E-07
 3 15 4.34137442E-07 0.00000000E+00 0.00000000E+00 0.00000000E+00 0.00000000E+00
 3 16 0.00000000E+00 0.00000000E+00 0.00000000E+00-6.63836006E-07 9.87785644E-08
 3 17-9.87785644E-08 0.00000000E+00 0.00000000E+00 0.00000000E+00-1.97763530E-06
 3 18-6.90467450E-05-2.45406077E-05-2.10835784E-05-1.19282354E-05 4.16045731E-05
 3 19 0.00000000E+00-1.27354064E-05 4.04694569E-05 0.00000000E+00 3.57682517E-07
 3 20 1.18046793E-06 0.00000000E+00 1.29521733E-07 4.23403084E-07-5.52924817E-07
 3 21-8.27388685E-07 0.00000000E+00 0.00000000E+00-4.48639378E-06 6.37292842E-06
 3 22-1.88653464E-06-9.00223455E-07 0.00000000E+00 0.00000000E+00-5.68891460E-07
 3 23-1.61667806E-06 0.00000000E+00 1.62086938E-06 0.00000000E+00 5.46682363E-07
 3 24 0.00000000E+00 2.16565623E-07 5.48131848E-07 0.00000000E+00-1.97763530E-06
 3 25-6.90467450E-05-2.45406077E-05-2.10835784E-05-1.19282354E-05-4.16045731E-05
 3 26 0.00000000E+00-1.27354064E-05-4.04694569E-05 0.00000000E+00 3.57682517E-07
 3 27-1.18046793E-06 0.00000000E+00 1.29521733E-07 4.23403084E-07-5.52924817E-07
 3 28 8.27388685E-07 0.00000000E+00 0.00000000E+00-4.48639378E-06 6.37292842E-06
 3 29-1.88653464E-06 9.00223455E-07 0.00000000E+00 0.00000000E+00-5.68891460E-07
 3 30 1.61667806E-06 0.00000000E+00-1.62086938E-06 0.00000000E+00 5.46682363E-07
 3 31 0.00000000E+00 2.16565623E-07-5.48131848E-07 0.00000000E+00 3.95527060E-06
 3 32 1.38093490E-04 4.90812154E-05 4.21671568E-05-8.39894698E-05 0.00000000E+00
 3 33 0.00000000E+00-8.28305620E-05 0.00000000E+00 0.00000000E+00-1.68694792E-06
 3 34 0.00000000E+00 0.00000000E+00-1.94094852E-06 8.35098886E-07 1.10584963E-06
 3 35 0.00000000E+00 0.00000000E+00 0.00000000E+00-8.66653093E-06 4.89346164E-06
 3 36 3.77306929E-06 0.00000000E+00 0.00000000E+00 0.00000000E+00 1.30531771E-06
 3 37 0.00000000E+00 0.00000000E+00 0.00000000E+00 0.00000000E+00-1.01844089E-06
 3 38 0.00000000E+00-7.32826587E-07 0.00000000E+00 0.00000000E+00
 4  1 0.00000000E+00 0.00000000E+00 0.00000000E+00 0.00000000E+00 0.00000000E+00
 4  2 0.00000000E+00 0.00000000E+00 0.00000000E+00 9.99996206E-01 0.00000000E+00
 4  3 0.00000000E+00 2.31536307E-04 0.00000000E+00 0.00000000E+00 1.92169683E-03
 4  4 0.00000000E+00 0.00000000E+00 2.15619137E-03 0.00000000E+00 0.00000000E+00
 4  5-4.80285260E-05 0.00000000E+00 0.00000000E+00 1.53369232E-05 0.00000000E+00
 4  6 0.00000000E+00 0.00000000E+00 0.00000000E+00-1.81233627E-05 0.00000000E+00
 4  7 0.00000000E+00 0.00000000E+00 0.00000000E+00 0.00000000E+00-3.81912908E-05
 4  8 0.00000000E+00 0.00000000E+00 0.00000000E+00 0.00000000E+00 0.00000000E+00
 4  9-2.13442719E-05 0.00000000E+00 0.00000000E+00 0.00000000E+00 0.00000000E+00
 4 10 0.00000000E+00 7.88212640E-06 0.00000000E+00 0.00000000E+00 0.00000000E+00
 4 11 1.44139847E-05 0.00000000E+00 6.44612991E-06 0.00000000E+00 0.00000000E+00
 4 12 0.00000000E+00 0.00000000E+00-2.57845196E-05 0.00000000E+00 0.00000000E+00
 4 13-7.50792883E-06 0.00000000E+00-3.35764785E-06 0.00000000E+00 0.00000000E+00
 4 14 0.00000000E+00 0.00000000E+00 1.34305914E-05 0.00000000E+00 0.00000000E+00
 4 15 0.00000000E+00 0.00000000E+00 6.13846592E-07 0.00000000E+00-5.28831540E-07
 4 16 0.00000000E+00 0.00000000E+00 0.00000000E+00 0.00000000E+00 0.00000000E+00
 4 17 0.00000000E+00 0.00000000E+00 0.00000000E+00-1.14059662E-07 3.42536482E-06
 4 18 1.19592471E-04 4.25055794E-05 3.65178290E-05 4.16045731E-05-5.99690583E-05
 4 19 0.00000000E+00 4.04694569E-05-5.94655101E-05 0.00000000E+00 1.18046793E-06
 4 20-1.00540444E-06 0.00000000E+00 2.37692682E-07-1.19538656E-06 9.57693876E-07
 4 21 1.12505864E-06 0.00000000E+00 0.00000000E+00-8.54170545E-07-2.41340331E-06
 4 22 3.26757385E-06 7.30912111E-06 0.00000000E+00 0.00000000E+00 4.69245132E-07
 4 23-5.23726997E-07 0.00000000E+00 1.11901602E-06 0.00000000E+00-1.17769026E-06
 4 24 0.00000000E+00 5.48131848E-07-4.16362517E-07 0.00000000E+00-3.42536482E-06
 4 25-1.19592471E-04-4.25055794E-05-3.65178290E-05-4.16045731E-05-5.99690583E-05
 4 26 0.00000000E+00-4.04694569E-05-5.94655101E-05 0.00000000E+00-1.18046793E-06
 4 27-1.00540444E-06 0.00000000E+00-2.37692682E-07 1.19538656E-06-9.57693876E-07
 4 28 1.12505864E-06 0.00000000E+00 0.00000000E+00 8.54170545E-07 2.41340331E-06
 4 29-3.26757385E-06 7.30912111E-06 0.00000000E+00 0.00000000E+00-4.69245132E-07
 4 30-5.23726997E-07 0.00000000E+00 1.11901602E-06 0.00000000E+00 1.17769026E-06
 4 31 0.00000000E+00-5.48131848E-07-4.16362517E-07 0.00000000E+00 0.00000000E+00
 4 32 0.00000000E+00 0.00000000E+00 0.00000000E+00 0.00000000E+00 1.20921760E-05
 4 33 0.00000000E+00 0.00000000E+00 1.06296454E-05 0.00000000E+00 0.00000000E+00
 4 34 1.03922600E-06 0.00000000E+00 0.00000000E+00 0.00000000E+00 0.00000000E+00
 4 35-3.08020603E-07 0.00000000E+00 0.00000000E+00 0.00000000E+00 0.00000000E+00
 4 36 0.00000000E+00 5.74988834E-06 0.00000000E+00 0.00000000E+00 0.00000000E+00
 4 37 1.21498878E-06 0.00000000E+00-2.16310820E-06 0.00000000E+00 0.00000000E+00
 4 38 0.00000000E+00 0.00000000E+00 5.33029693E-07 0.00000000E+00
 5  1 0.00000000E+00 0.00000000E+00 0.00000000E+00 0.00000000E+00 0.00000000E+00
 5  2 0.00000000E+00 0.00000000E+00 0.00000000E+00 0.00000000E+00 9.99998144E-01
 5  3 0.00000000E+00 0.00000000E+00 1.69207383E-04 0.00000000E+00 0.00000000E+00
 5  4 9.77103045E-04 0.00000000E+00 0.00000000E+00 1.18590733E-03 0.00000000E+00
 5  5 0.00000000E+00 6.93288180E-05 0.00000000E+00 0.00000000E+00 1.62508512E-05
 5  6 0.00000000E+00 0.00000000E+00 0.00000000E+00 0.00000000E+00 0.00000000E+00
 5  7 0.00000000E+00 0.00000000E+00 0.00000000E+00 0.00000000E+00 0.00000000E+00
 5  8 0.00000000E+00 0.00000000E+00 0.00000000E+00 0.00000000E+00 0.00000000E+00
 5  9 0.00000000E+00 0.00000000E+00 0.00000000E+00 0.00000000E+00 0.00000000E+00
 5 10 0.00000000E+00 0.00000000E+00 0.00000000E+00 0.00000000E+00 0.00000000E+00
 5 11 0.00000000E+00-1.41959467E-05 0.00000000E+00 9.52293053E-06 0.00000000E+00
 5 12 9.52293053E-06 0.00000000E+00 0.00000000E+00 0.00000000E+00 0.00000000E+00
 5 13 0.00000000E+00 2.27014112E-05 0.00000000E+00-1.52285696E-05 0.00000000E+00
 5 14-1.52285696E-05 0.00000000E+00 0.00000000E+00 0.00000000E+00 0.00000000E+00
 5 15 0.00000000E+00 0.00000000E+00 0.00000000E+00 4.43855131E-07 0.00000000E+00
 5 16 0.00000000E+00 0.00000000E+00 0.00000000E+00 0.00000000E+00 0.00000000E+00
 5 17 0.00000000E+00 0.00000000E+00-5.95494147E-07 0.00000000E+00 0.00000000E+00
 5 18 0.00000000E+00 0.00000000E+00 0.00000000E+00 0.00000000E+00 0.00000000E+00
 5 19 1.29467628E-05 0.00000000E+00 0.00000000E+00 1.06096116E-05 0.00000000E+00
 5 20 0.00000000E+00 2.03708914E-06 0.00000000E+00 0.00000000E+00 0.00000000E+00
 5 21 0.00000000E+00 1.71795818E-07-2.97559086E-07 0.00000000E+00 0.00000000E+00
 5 22 0.00000000E+00 0.00000000E+00-3.11108965E-06 5.38856534E-06 0.00000000E+00
 5 23 0.00000000E+00 1.29345712E-06 0.00000000E+00-1.43643193E-07 0.00000000E+00
 5 24-1.59171163E-06 0.00000000E+00 0.00000000E+00 1.44806844E-06 0.00000000E+00
 5 25 0.00000000E+00 0.00000000E+00 0.00000000E+00 0.00000000E+00 0.00000000E+00
 5 26 1.29467628E-05 0.00000000E+00 0.00000000E+00 1.06096116E-05 0.00000000E+00
 5 27 0.00000000E+00 2.03708914E-06 0.00000000E+00 0.00000000E+00 0.00000000E+00
 5 28 0.00000000E+00 1.71795818E-07 2.97559086E-07 0.00000000E+00 0.00000000E+00
 5 29 0.00000000E+00 0.00000000E+00-3.11108965E-06-5.38856534E-06 0.00000000E+00
 5 30 0.00000000E+00 1.29345712E-06 0.00000000E+00-1.43643193E-07 0.00000000E+00
 5 31-1.59171163E-06 0.00000000E+00 0.00000000E+00-1.44806844E-06 0.00000000E+00
 5 32 0.00000000E+00 0.00000000E+00 0.00000000E+00 0.00000000E+00 0.00000000E+00
 5 33 1.29467628E-05 0.00000000E+00 0.00000000E+00 1.06096116E-05 0.00000000E+00
 5 34 0.00000000E+00 2.03708914E-06 0.00000000E+00 0.00000000E+00 0.00000000E+00
 5 35 0.00000000E+00-3.43591636E-07 0.00000000E+00 0.00000000E+00 0.00000000E+00
 5 36 0.00000000E+00 0.00000000E+00 6.22217930E-06 0.00000000E+00 0.00000000E+00
 5 37 0.00000000E+00 1.29345712E-06 0.00000000E+00-2.31574586E-06 0.00000000E+00
 5 38 5.80391028E-07 0.00000000E+00 0.00000000E+00 0.00000000E+00
 6  1 0.00000000E+00 0.00000000E+00 0.00000000E+00 0.00000000E+00 0.00000000E+00
 6  2 0.00000000E+00 0.00000000E+00-1.86406607E-05 0.00000000E+00 0.00000000E+00
 6  3-2.29143133E-04 0.00000000E+00 0.00000000E+00 1.23599272E-03 0.00000000E+00
 6  4 0.00000000E+00-1.65801641E-04 0.00000000E+00 0.00000000E+00-3.28106072E-05
 6  5 0.00000000E+00 0.00000000E+00 3.52369672E-05 0.00000000E+00 0.00000000E+00
 6  6-3.54033808E-04 3.54033808E-04 0.00000000E+00 0.00000000E+00 0.00000000E+00
 6  7 0.00000000E+00-2.96340480E-04 2.96340480E-04 0.00000000E+00 0.00000000E+00
 6  8 0.00000000E+00 0.00000000E+00-9.54743684E-05 9.54743684E-05 0.00000000E+00
 6  9 0.00000000E+00 0.00000000E+00 0.00000000E+00-5.32597460E-04 5.32597460E-04
 6 10 0.00000000E+00 0.00000000E+00 0.00000000E+00 0.00000000E+00-1.68218099E-06
 6 11 0.00000000E+00 0.00000000E+00 0.00000000E+00 0.00000000E+00-7.52294209E-07
 6 12 0.00000000E+00 3.00917684E-06 0.00000000E+00 0.00000000E+00-3.62905723E-05
 6 13 0.00000000E+00 0.00000000E+00 0.00000000E+00 0.00000000E+00-1.62296373E-05
 6 14 0.00000000E+00 6.49185492E-05 0.00000000E+00 0.00000000E+00 3.87532828E-06
 6 15 1.57867945E-06 0.00000000E+00 0.00000000E+00 0.00000000E+00 0.00000000E+00
 6 16 0.00000000E+00 0.00000000E+00 0.00000000E+00-4.79030989E-06-2.01716978E-06
 6 17 2.01716978E-06 0.00000000E+00 0.00000000E+00 0.00000000E+00-3.98489864E-01
 6 18 2.16796678E-03-1.66850171E-02-1.23825692E-03 5.60736137E-05-1.02506434E-04
 6 19 0.00000000E+00 4.83295146E-05-3.33778742E-05 0.00000000E+00-1.54881719E-04
 6 20 1.01439917E-04 0.00000000E+00-4.59026453E-06 1.12107471E-07 4.47815706E-06
 6 21-3.29203008E-06 0.00000000E+00 0.00000000E+00 1.04257645E-05 3.94120605E-07
 6 22-1.08198851E-05 1.50195966E-05 0.00000000E+00 0.00000000E+00 3.23308043E-06
 6 23-1.81877416E-07 0.00000000E+00 1.11408374E-06 0.00000000E+00-5.39672367E-06
 6 24 0.00000000E+00 1.05909109E-06-8.70069585E-07 0.00000000E+00-3.98489864E-01
 6 25 2.16796678E-03-1.66850171E-02-1.23825692E-03 5.60736137E-05 1.02506434E-04
 6 26 0.00000000E+00 4.83295146E-05 3.33778742E-05 0.00000000E+00-1.54881719E-04
 6 27-1.01439917E-04 0.00000000E+00-4.59026453E-06 1.12107471E-07 4.47815706E-06
 6 28 3.29203008E-06 0.00000000E+00 0.00000000E+00 1.04257645E-05 3.94120605E-07
 6 29-1.08198851E-05-1.50195966E-05 0.00000000E+00 0.00000000E+00 3.23308043E-06
 6 30 1.81877416E-07 0.00000000E+00-1.11408374E-06 0.00000000E+00-5.39672367E-06
 6 31 0.00000000E+00 1.05909109E-06 8.70069585E-07 0.00000000E+00 7.96979728E-01
 6 32-4.33593357E-03 3.33700342E-02 2.47651384E-03 2.33619965E-04 0.00000000E+00
 6 33 0.00000000E+00 1.06141689E-04 0.00000000E+00 0.00000000E+00-3.30580808E-04
 6 34 0.00000000E+00 0.00000000E+00-2.81107406E-06 1.17673882E-05-8.95631412E-06
 6 35 0.00000000E+00 0.00000000E+00 0.00000000E+00 1.67253318E-05-3.83651020E-05
 6 36 2.16397702E-05 0.00000000E+00 0.00000000E+00 0.00000000E+00-9.08475188E-06
 6 37 0.00000000E+00 0.00000000E+00 0.00000000E+00 0.00000000E+00 9.62237784E-06
 6 38 0.00000000E+00 2.56609582E-06 0.00000000E+00 0.00000000E+00
 7  1 0.00000000E+00 0.00000000E+00 0.00000000E+00 0.00000000E+00 0.00000000E+00
 7  2 0.00000000E+00 0.00000000E+00 0.00000000E+00 1.86406607E-05 0.00000000E+00
 7  3 0.00000000E+00 2.29143133E-04 0.00000000E+00 0.00000000E+00-1.23599272E-03
 7  4 0.00000000E+00 0.00000000E+00 1.65801641E-04 0.00000000E+00 0.00000000E+00
 7  5 3.28106072E-05 0.00000000E+00 0.00000000E+00-3.52369672E-05 0.00000000E+00
 7  6 0.00000000E+00 0.00000000E+00 0.00000000E+00-4.08803028E-04 0.00000000E+00
 7  7 0.00000000E+00 0.00000000E+00 0.00000000E+00 0.00000000E+00-3.42184512E-04
 7  8 0.00000000E+00 0.00000000E+00 0.00000000E+00 0.00000000E+00 0.00000000E+00
 7  9-1.10244305E-04 0.00000000E+00 0.00000000E+00 0.00000000E+00 0.00000000E+00
 7 10 0.00000000E+00-6.14990574E-04 0.00000000E+00 0.00000000E+00 0.00000000E+00
 7 11 1.68218099E-06 0.00000000E+00 7.52294209E-07 0.00000000E+00 0.00000000E+00
 7 12 0.00000000E+00 0.00000000E+00-3.00917684E-06 0.00000000E+00 0.00000000E+00
 7 13 3.62905723E-05 0.00000000E+00 1.62296373E-05 0.00000000E+00 0.00000000E+00
 7 14 0.00000000E+00 0.00000000E+00-6.49185492E-05 0.00000000E+00 0.00000000E+00
 7 15 0.00000000E+00 0.00000000E+00-3.25479065E-06 0.00000000E+00 4.99089398E-06
 7 16 0.00000000E+00 0.00000000E+00 0.00000000E+00 0.00000000E+00 0.00000000E+00
 7 17 0.00000000E+00 0.00000000E+00 0.00000000E+00-2.32922703E-06-6.90204691E-01
 7 18 3.75502862E-03-2.88992973E-02-2.14472390E-03 1.02506434E-04-1.74437848E-04
 7 19 0.00000000E+00 3.33778742E-05-8.68709639E-05 0.00000000E+00-1.01439917E-04
 7 20 2.72014445E-04 0.00000000E+00-6.72917946E-06-1.02721610E-06 7.75639555E-06
 7 21-6.51622465E-06 0.00000000E+00 0.00000000E+00 2.23776476E-05-3.63705686E-06
 7 22-1.87405907E-05 2.31349086E-05 0.00000000E+00 0.00000000E+00 6.13893643E-06
 7 23 1.53949815E-06 0.00000000E+00-1.69259480E-09 0.00000000E+00-9.10631709E-06
 7 24 0.00000000E+00 8.70069585E-07-2.06376091E-06 0.00000000E+00 6.90204691E-01
 7 25-3.75502862E-03 2.88992973E-02 2.14472390E-03-1.02506434E-04-1.74437848E-04
 7 26 0.00000000E+00-3.33778742E-05-8.68709639E-05 0.00000000E+00 1.01439917E-04
 7 27 2.72014445E-04 0.00000000E+00 6.72917946E-06 1.02721610E-06-7.75639555E-06
 7 28-6.51622465E-06 0.00000000E+00 0.00000000E+00-2.23776476E-05 3.63705686E-06
 7 29 1.87405907E-05 2.31349086E-05 0.00000000E+00 0.00000000E+00-6.13893643E-06
 7 30 1.53949815E-06 0.00000000E+00-1.69259480E-09 0.00000000E+00 9.10631709E-06
 7 31 0.00000000E+00-8.70069585E-07-2.06376091E-06 0.00000000E+00 0.00000000E+00
 7 32 0.00000000E+00 0.00000000E+00 0.00000000E+00 0.00000000E+00 3.10850355E-06
 7 33 0.00000000E+00 0.00000000E+00-2.90587900E-05 0.00000000E+00 0.00000000E+00
 7 34 9.63153554E-05 0.00000000E+00 0.00000000E+00 0.00000000E+00 0.00000000E+00
 7 35-8.14261288E-07 0.00000000E+00 0.00000000E+00 0.00000000E+00 0.00000000E+00
 7 36 0.00000000E+00-2.87979585E-06 0.00000000E+00 0.00000000E+00 0.00000000E+00
 7 37-4.60405284E-07 0.00000000E+00 1.17445469E-06 0.00000000E+00 0.00000000E+00
 7 38 0.00000000E+00 0.00000000E+00-5.56756184E-07 0.00000000E+00
 8  1-2.70979486E-05-7.91488346E-05-3.73181327E-04-1.17510691E-03-4.11365464E-04
 8  2 1.68070881E-05 9.42243866E-05 0.00000000E+00 0.00000000E+00 0.00000000E+00
 8  3 0.00000000E+00 0.00000000E+00 0.00000000E+00 0.00000000E+00 0.00000000E+00
 8  4 0.00000000E+00 0.00000000E+00 0.00000000E+00 0.00000000E+00 0.00000000E+00
 8  5 0.00000000E+00 0.00000000E+00 0.00000000E+00 0.00000000E+00 0.00000000E+00
 8  6-1.52993459E-04-1.52993459E-04 3.05986919E-04 0.00000000E+00 0.00000000E+00
 8  7 0.00000000E+00-1.20087245E-04-1.20087245E-04 2.40174490E-04 0.00000000E+00
 8  8 0.00000000E+00 0.00000000E+00-3.21625497E-05-3.21625497E-05 6.43250993E-05
 8  9 0.00000000E+00 0.00000000E+00 0.00000000E+00-1.41382180E-04-1.41382180E-04
 8 10 2.82764360E-04 0.00000000E+00 0.00000000E+00 0.00000000E+00-1.22723202E-05
 8 11 0.00000000E+00 0.00000000E+00 0.00000000E+00 0.00000000E+00 1.64650454E-05
 8 12 0.00000000E+00 0.00000000E+00 0.00000000E+00 0.00000000E+00-4.99074998E-05
 8 13 0.00000000E+00 0.00000000E+00 0.00000000E+00 0.00000000E+00 6.69579372E-05
 8 14 0.00000000E+00 0.00000000E+00 0.00000000E+00 0.00000000E+00 1.11047972E-06
 8 15 1.11047972E-06 2.96127926E-06 0.00000000E+00 0.00000000E+00 0.00000000E+00
 8 16 0.00000000E+00 0.00000000E+00 0.00000000E+00 6.50230346E-07-2.60092138E-06
 8 17-2.60092138E-06 0.00000000E+00 0.00000000E+00 0.00000000E+00 5.63580512E-01
 8 18-3.00078061E-03 2.35962178E-02 1.48513631E-03-7.20835334E-05 1.24852342E-04
 8 19 0.00000000E+00-6.15836184E-05 1.06665956E-04 0.00000000E+00 1.35385103E-04
 8 20-2.34493878E-04 0.00000000E+00-4.85221418E-06-5.21842769E-06 1.00706419E-05
 8 21 3.66213511E-07 0.00000000E+00 0.00000000E+00 1.43774933E-05 1.36278706E-05
 8 22-2.80053639E-05 7.49622635E-07 0.00000000E+00 0.00000000E+00 1.28996234E-06
 8 23-2.73690008E-06 0.00000000E+00-1.22397893E-06 0.00000000E+00 1.09599216E-06
 8 24 0.00000000E+00-2.82665825E-06 4.89591570E-06 0.00000000E+00 5.63580512E-01
 8 25-3.00078061E-03 2.35962178E-02 1.48513631E-03-7.20835334E-05-1.24852342E-04
 8 26 0.00000000E+00-6.15836184E-05-1.06665956E-04 0.00000000E+00 1.35385103E-04
 8 27 2.34493878E-04 0.00000000E+00-4.85221418E-06-5.21842769E-06 1.00706419E-05
 8 28-3.66213511E-07 0.00000000E+00 0.00000000E+00 1.43774933E-05 1.36278706E-05
 8 29-2.80053639E-05-7.49622635E-07 0.00000000E+00 0.00000000E+00 1.28996234E-06
 8 30 2.73690008E-06 0.00000000E+00 1.22397893E-06 0.00000000E+00 1.09599216E-06
 8 31 0.00000000E+00-2.82665825E-06-4.89591570E-06 0.00000000E+00 5.63580512E-01
 8 32-3.00078061E-03 2.35962178E-02 1.48513631E-03 1.44167067E-04 0.00000000E+00
 8 33 0.00000000E+00 1.23167237E-04 0.00000000E+00 0.00000000E+00-2.70770207E-04
 8 34 0.00000000E+00 0.00000000E+00-5.40153445E-06-4.66910742E-06 1.00706419E-05
 8 35 0.00000000E+00 0.00000000E+00 0.00000000E+00 1.32530593E-05 1.47523046E-05
 8 36-2.80053639E-05 0.00000000E+00 0.00000000E+00 0.00000000E+00-3.45048766E-06
 8 37 0.00000000E+00 0.00000000E+00 0.00000000E+00 0.00000000E+00-1.02400152E-06
 8 38 0.00000000E+00 5.65331650E-06 0.00000000E+00 0.00000000E+00
 9  1 1.46206997E-06-1.21314198E-03 9.92244080E-01-3.44461884E-02-1.12742245E-02
 9  2-3.05869589E-02-1.92334356E-03 0.00000000E+00 0.00000000E+00 0.00000000E+00
 9  3 0.00000000E+00 0.00000000E+00 0.00000000E+00 0.00000000E+00 0.00000000E+00
 9  4 0.00000000E+00 0.00000000E+00 0.00000000E+00 0.00000000E+00 0.00000000E+00
 9  5 0.00000000E+00 0.00000000E+00 0.00000000E+00 0.00000000E+00 0.00000000E+00
 9  6 2.06480349E-03 2.06480349E-03-4.12960699E-03 0.00000000E+00 0.00000000E+00
 9  7 0.00000000E+00-3.46488772E-04-3.46488772E-04 6.92977544E-04 0.00000000E+00
 9  8 0.00000000E+00 0.00000000E+00-8.69185257E-04-8.69185257E-04 1.73837051E-03
 9  9 0.00000000E+00 0.00000000E+00 0.00000000E+00-1.60687111E-04-1.60687111E-04
 9 10 3.21374222E-04 0.00000000E+00 0.00000000E+00 0.00000000E+00 9.81392058E-05
 9 11 0.00000000E+00 0.00000000E+00 0.00000000E+00 0.00000000E+00-1.31667561E-04
 9 12 0.00000000E+00 0.00000000E+00 0.00000000E+00 0.00000000E+00 1.20688442E-03
 9 13 0.00000000E+00 0.00000000E+00 0.00000000E+00 0.00000000E+00-1.61920536E-03
 9 14 0.00000000E+00 0.00000000E+00 0.00000000E+00 0.00000000E+00 3.79281008E-05
 9 15 3.79281008E-05 1.01141602E-04 0.00000000E+00 0.00000000E+00 0.00000000E+00
 9 16 0.00000000E+00 0.00000000E+00 0.00000000E+00 2.22084218E-05-8.88336873E-05
 9 17-8.88336873E-05 0.00000000E+00 0.00000000E+00 0.00000000E+00 6.55084706E-05
 9 18 2.25806678E-03 5.25961668E-04 1.30273468E-03 4.84341645E-04-8.38904338E-04
 9 19 0.00000000E+00 8.62436596E-04-1.49378400E-03 0.00000000E+00 3.98013867E-04
 9 20-6.89380240E-04 0.00000000E+00-2.12487326E-05 9.34892258E-05-7.22404931E-05
 9 21-1.14737958E-04 0.00000000E+00 0.00000000E+00-5.28522018E-05 3.16124563E-04
 9 22-2.63272361E-04-3.68976765E-04 0.00000000E+00 0.00000000E+00-2.95767715E-05
 9 23-2.34936139E-05 0.00000000E+00-1.05066635E-05 0.00000000E+00 6.39455031E-05
 9 24 0.00000000E+00-2.42641001E-05 4.20266542E-05 0.00000000E+00 6.55084706E-05
 9 25 2.25806678E-03 5.25961668E-04 1.30273468E-03 4.84341645E-04 8.38904338E-04
 9 26 0.00000000E+00 8.62436596E-04 1.49378400E-03 0.00000000E+00 3.98013867E-04
 9 27 6.89380240E-04 0.00000000E+00-2.12487326E-05 9.34892258E-05-7.22404931E-05
 9 28 1.14737958E-04 0.00000000E+00 0.00000000E+00-5.28522018E-05 3.16124563E-04
 9 29-2.63272361E-04 3.68976765E-04 0.00000000E+00 0.00000000E+00-2.95767715E-05
 9 30 2.34936139E-05 0.00000000E+00 1.05066635E-05 0.00000000E+00 6.39455031E-05
 9 31 0.00000000E+00-2.42641001E-05-4.20266542E-05 0.00000000E+00 6.55084706E-05
 9 32 2.25806678E-03 5.25961668E-04 1.30273468E-03-9.68683290E-04 0.00000000E+00
 9 33 0.00000000E+00-1.72487319E-03 0.00000000E+00 0.00000000E+00-7.96027734E-04
 9 34 0.00000000E+00 0.00000000E+00 1.50858205E-04-7.86177118E-05-7.22404931E-05
 9 35 0.00000000E+00 0.00000000E+00 0.00000000E+00 5.00612945E-04-2.37340584E-04
 9 36-2.63272361E-04 0.00000000E+00 0.00000000E+00 0.00000000E+00-7.02689045E-05
 9 37 0.00000000E+00 0.00000000E+00 0.00000000E+00 0.00000000E+00 4.57474281E-05
 9 38 0.00000000E+00 4.85282002E-05 0.00000000E+00 0.00000000E+00
10  1 0.00000000E+00 0.00000000E+00 0.00000000E+00 0.00000000E+00 0.00000000E+00
10  2 0.00000000E+00 0.00000000E+00-4.17225821E-04 0.00000000E+00 0.00000000E+00
10  3 9.95493054E-01 0.00000000E+00 0.00000000E+00 4.56888974E-02 0.00000000E+00
10  4 0.00000000E+00 1.09680238E-02 0.00000000E+00 0.00000000E+00-3.26215638E-02
10  5 0.00000000E+00 0.00000000E+00 3.00636041E-04 0.00000000E+00 0.00000000E+00
10  6 1.83032826E-03-1.83032826E-03 0.00000000E+00 0.00000000E+00 0.00000000E+00
10  7 0.00000000E+00 4.07918407E-04-4.07918407E-04 0.00000000E+00 0.00000000E+00