 !Step 2: single point gmcpt calculation averaging 10 states
 !        for FeF4- at optimized geometry. The UHF orbitals at
 !        the MP2 optimized structure is taken as the initial
 !        guess of orbitals in the $VEC group. 
 $system kdiag=3 mwords=250 memddi=8000 parall=.t. $end
 $contrl runtyp=energy ispher=1 relwfn=dk $end
 $contrl icut=9 itol=20 inttyp=rysquad qmttol=1.0d-05 nosym=1 $end
 $scf    npunch=2 conv=1.0d-06 dirscf=.t. diis=.t. soscf=.f. ethrsh=10.0 $end
 $contrl scftyp=mcscf mult=5 maxit=200 icharg=0 mplevl=2 $end
 $relwfn norder=3 $end
 $guess  guess=moread norb=158 purify=.t. $end
 $basis  gbasis=cct $end
 $mcscf  cistep=gmcci fullnr=.t. finci=mos
         acurcy=1.d-6 maxit=200 $end
 $trans  dirtrf=.t. $end
 $mrmp   mrpt=gmcpt rdvecs=.f. $end
 $gmcpt  nmofzc=12 nmodoc=12 nmoact=5 nelact=6 stsym(1)=A nsolut=100
         reftyp=ormas nspace=1 mstart(1)=25 mine(1)=6 maxe(1)=6
         kstate(1)=1,1,1
         wstate(1)=1,1,1
         iwgt=0 thrwgt=-1.0 krot=.f. kszdoe=.f. knospn=.f.
         thrde=-1.0 edshft=0.02 $end
 $statpt hssend=.t. $end
 $data
 FeH4- 10 states calculation at opt geometry.
 C1
 CO         27.0  -0.0000000000  -0.0000000000   0.0000000000
 F           9.0  -0.8572839723   1.4848593965   0.0000000000
 F           9.0  -0.8572839723  -1.4848593965   0.0000000000
 F           9.0   1.7145679445   0.0000000000   0.0000000000
 $end
--- Semi-canonical MOs --- generated at Wed Dec 13 13:40:05 2023
 $VEC   
 1  1 9.83222045E-01-1.82412789E-01-4.03973341E-04 8.22879153E-06-5.50817350E-07
 1  2 1.08425888E-06 9.26610705E-06-0.00000000E+00-0.00000000E+00-0.00000000E+00
 1  3 2.26389397E-11-0.00000000E+00-0.00000000E+00-7.41537800E-10-1.59810635E-11
 1  4-0.00000000E+00-7.65178213E-10-1.34114434E-11-0.00000000E+00 1.12965053E-10
 1  5-0.00000000E+00-0.00000000E+00-0.00000000E+00-0.00000000E+00-0.00000000E+00
 1  6 1.44596621E-07 1.44680132E-07-2.89276753E-07-0.00000000E+00-0.00000000E+00
 1  7-0.00000000E+00 7.76649623E-07 7.76664529E-07-1.55331415E-06-0.00000000E+00
 1  8-0.00000000E+00-0.00000000E+00 1.89699664E-07 1.89688145E-07-3.79387808E-07
 1  9-0.00000000E+00-0.00000000E+00-0.00000000E+00 2.84489566E-07 2.84456122E-07
 1 10-5.68945688E-07-0.00000000E+00-0.00000000E+00-0.00000000E+00-2.00229427E-07
 1 11-0.00000000E+00-0.00000000E+00-0.00000000E+00-0.00000000E+00 2.68600399E-07
 1 12-0.00000000E+00 4.53029209E-11-0.00000000E+00-0.00000000E+00-3.39350407E-09
 1 13-0.00000000E+00-0.00000000E+00-0.00000000E+00-0.00000000E+00 4.55558797E-09
 1 14-0.00000000E+00-0.00000000E+00-0.00000000E+00-0.00000000E+00-6.32778052E-09
 1 15-6.32039634E-09-1.68545082E-08-3.14343938E-11-0.00000000E+00-0.00000000E+00
 1 16-0.00000000E+00-0.00000000E+00-0.00000000E+00-3.69446317E-09 1.48099698E-08
 1 17 1.47969986E-08-0.00000000E+00-0.00000000E+00 4.14242394E-11-1.19412248E-07
 1 18-2.45960915E-07-7.39094603E-08-1.44351353E-06-1.45434231E-07 2.51873789E-07
 1 19-0.00000000E+00 1.60930188E-07-2.78710575E-07-0.00000000E+00-9.12175492E-07
 1 20 1.57991436E-06-0.00000000E+00 1.07203721E-07-4.08556864E-07 3.01353143E-07
 1 21 5.15751816E-07-0.00000000E+00-0.00000000E+00-2.43840998E-07 8.83741191E-07
 1 22-6.39900194E-07-1.12759182E-06-0.00000000E+00-0.00000000E+00-3.86318867E-07
 1 23-2.65908628E-07-0.00000000E+00-1.18919003E-07-0.00000000E+00 7.92920099E-07
 1 24-0.00000000E+00-2.74618950E-07 4.75672864E-07-0.00000000E+00-1.19415569E-07
 1 25-2.45966596E-07-7.39077955E-08-1.44350553E-06-1.45430139E-07-2.51872891E-07
 1 26-0.00000000E+00 1.60933164E-07 2.78709703E-07-0.00000000E+00-9.12172340E-07
 1 27-1.57991290E-06-0.00000000E+00 1.07202959E-07-4.08555486E-07 3.01352527E-07
 1 28-5.15754073E-07-0.00000000E+00-0.00000000E+00-2.43840490E-07 8.83737906E-07
 1 29-6.39897415E-07 1.12759249E-06-0.00000000E+00-0.00000000E+00-3.86312684E-07
 1 30 2.65895374E-07-0.00000000E+00 1.18920946E-07-0.00000000E+00 7.92926123E-07
 1 31-0.00000000E+00-2.74633270E-07-4.75657025E-07-0.00000000E+00-1.19425922E-07
 1 32-2.45955505E-07-7.38861357E-08-1.44351750E-06 2.90811932E-07-4.67897364E-11
 1 33-0.00000000E+00-3.21779391E-07-0.00000000E+00-0.00000000E+00 1.82425035E-06
 1 34 4.14625203E-11-0.00000000E+00-6.66414735E-07 3.65067834E-07 3.01346901E-07
 1 35-0.00000000E+00-0.00000000E+00-0.00000000E+00 1.44758746E-06-8.07659794E-07
 1 36-6.39927670E-07-0.00000000E+00-0.00000000E+00-0.00000000E+00-8.46892218E-07
 1 37-0.00000000E+00-0.00000000E+00-0.00000000E+00-0.00000000E+00 5.86966335E-07
 1 38-0.00000000E+00 5.49258806E-07-0.00000000E+00-0.00000000E+00
 2  1 1.82404805E-01 9.83186794E-01 5.22950907E-03-4.98575981E-04 1.17088253E-04
 2  2-2.85132498E-04-3.24325005E-05-1.14105398E-10 1.68643240E-11-0.00000000E+00
 2  3-4.86630929E-11-0.00000000E+00-0.00000000E+00 2.04876783E-10 7.36120861E-11
 2  4-0.00000000E+00 8.12514810E-11 8.94470386E-11-0.00000000E+00-5.10256225E-11
 2  5-0.00000000E+00-0.00000000E+00 1.01831819E-11-0.00000000E+00-0.00000000E+00
 2  6-1.08563396E-04-1.08563339E-04 2.17126735E-04-0.00000000E+00-0.00000000E+00
 2  7-0.00000000E+00-3.46258142E-05-3.46259085E-05 6.92517228E-05-0.00000000E+00
 2  8-0.00000000E+00-0.00000000E+00-9.49149870E-05-9.49150238E-05 1.89830011E-04
 2  9-0.00000000E+00-0.00000000E+00-0.00000000E+00 1.12332343E-05 1.12331666E-05
 2 10-2.24664009E-05-0.00000000E+00-0.00000000E+00-0.00000000E+00 3.92882381E-06
 2 11-0.00000000E+00-0.00000000E+00-0.00000000E+00-0.00000000E+00-5.27107123E-06
 2 12-0.00000000E+00-0.00000000E+00-0.00000000E+00-0.00000000E+00-5.43634092E-06
 2 13-0.00000000E+00-0.00000000E+00-0.00000000E+00-0.00000000E+00 7.29364777E-06
 2 14-0.00000000E+00-3.07814124E-11-0.00000000E+00-0.00000000E+00-3.67355805E-07
 2 15-3.67354891E-07-9.79612652E-07-0.00000000E+00-0.00000000E+00-0.00000000E+00
 2 16-0.00000000E+00-0.00000000E+00-0.00000000E+00-2.15099853E-07 8.60404456E-07
 2 17 8.60402850E-07-0.00000000E+00-0.00000000E+00-0.00000000E+00 3.57150067E-08
 2 18 1.05695865E-07 6.04487081E-07 7.82422563E-06 5.91150881E-07-1.02387864E-06
 2 19-0.00000000E+00-3.31130171E-06 5.73525777E-06-0.00000000E+00 7.43673390E-06
 2 20-1.28806482E-05-0.00000000E+00-1.01809765E-06 2.83062771E-06-1.81253006E-06
 2 21-3.84874312E-06-0.00000000E+00-0.00000000E+00 3.01542856E-06-8.33364123E-06
 2 22 5.31821266E-06 1.13490317E-05-0.00000000E+00-0.00000000E+00 3.87845573E-06
 2 23 2.05336611E-06-0.00000000E+00 9.18272068E-07-0.00000000E+00-7.32419752E-06
 2 24-0.00000000E+00 2.12070313E-06-3.67315179E-06-0.00000000E+00 3.57059710E-08
 2 25 1.05681572E-07 6.04490573E-07 7.82425319E-06 5.91141381E-07 1.02387188E-06
 2 26-0.00000000E+00-3.31128463E-06-5.73524214E-06-0.00000000E+00 7.43672914E-06
 2 27 1.28806493E-05-0.00000000E+00-1.01809348E-06 2.83062122E-06-1.81252774E-06
 2 28 3.84874048E-06-0.00000000E+00-0.00000000E+00 3.01542508E-06-8.33363948E-06
 2 29 5.31821440E-06-1.13490342E-05-0.00000000E+00-0.00000000E+00 3.87848578E-06
 2 30-2.05331835E-06-0.00000000E+00-9.18315319E-07-0.00000000E+00-7.32421355E-06
 2 31-0.00000000E+00 2.12067884E-06 3.67313097E-06-0.00000000E+00 3.55794783E-08
 2 32 1.05630269E-07 6.04458724E-07 7.82434436E-06-1.18233095E-06-0.00000000E+00
 2 33-0.00000000E+00 6.62260468E-06-0.00000000E+00-0.00000000E+00-1.48734739E-05
 2 34-0.00000000E+00-0.00000000E+00 4.75499396E-06-2.94249401E-06-1.81249996E-06
 2 35-0.00000000E+00-0.00000000E+00-0.00000000E+00-1.40081093E-05 8.68994385E-06
 2 36 5.31816542E-06-0.00000000E+00-0.00000000E+00-0.00000000E+00 7.43500615E-06
 2 37-0.00000000E+00-0.00000000E+00-0.00000000E+00-0.00000000E+00-5.73368614E-06
 2 38-0.00000000E+00-4.24142135E-06-0.00000000E+00-0.00000000E+00
 3  1 0.00000000E+00 0.00000000E+00 0.00000000E+00 0.00000000E+00 0.00000000E+00
 3  2 0.00000000E+00 0.00000000E+00 0.00000000E+00 0.00000000E+00 9.99963571E-01
 3  3 0.00000000E+00 0.00000000E+00 8.00023297E-03 0.00000000E+00 0.00000000E+00
 3  4 2.37038904E-03 0.00000000E+00 0.00000000E+00 2.31375659E-03 0.00000000E+00
 3  5 0.00000000E+00-3.74531185E-04 0.00000000E+00 0.00000000E+00 2.54562748E-05
 3  6 0.00000000E+00 0.00000000E+00 0.00000000E+00 0.00000000E+00-2.07615423E-11
 3  7 0.00000000E+00 0.00000000E+00 0.00000000E+00 0.00000000E+00 0.00000000E+00
 3  8-2.46163628E-11-1.41125100E-11 0.00000000E+00 0.00000000E+00 0.00000000E+00
 3  9 0.00000000E+00-1.62431076E-11-1.71590743E-11 0.00000000E+00 0.00000000E+00
 3 10 0.00000000E+00 0.00000000E+00 0.00000000E+00 0.00000000E+00 0.00000000E+00
 3 11 0.00000000E+00 4.14020357E-05 0.00000000E+00-2.77733352E-05 0.00000000E+00
 3 12-2.77733245E-05 0.00000000E+00 0.00000000E+00 0.00000000E+00 0.00000000E+00
 3 13 0.00000000E+00-1.03611850E-05 0.00000000E+00 6.95048274E-06 0.00000000E+00
 3 14 6.95050572E-06 0.00000000E+00 0.00000000E+00 0.00000000E+00 0.00000000E+00
 3 15 0.00000000E+00 0.00000000E+00 0.00000000E+00-1.84877936E-06 0.00000000E+00
 3 16-1.70110257E-11 0.00000000E+00 1.85022371E-11 0.00000000E+00 0.00000000E+00
 3 17 0.00000000E+00 0.00000000E+00 2.48039661E-06 0.00000000E+00 0.00000000E+00
 3 18 0.00000000E+00 0.00000000E+00 0.00000000E+00 0.00000000E+00 0.00000000E+00
 3 19 8.63654034E-07 0.00000000E+00 0.00000000E+00-2.65933294E-06 0.00000000E+00
 3 20 0.00000000E+00-9.12854870E-07 0.00000000E+00 0.00000000E+00 0.00000000E+00
 3 21 0.00000000E+00 7.24975315E-07-1.25569967E-06 0.00000000E+00 0.00000000E+00
 3 22 0.00000000E+00 0.00000000E+00-3.43877578E-06 5.95613350E-06 0.00000000E+00
 3 23 0.00000000E+00 1.13892405E-06 0.00000000E+00-1.31355195E-07 0.00000000E+00
 3 24-1.39667176E-06 0.00000000E+00 0.00000000E+00 1.26531868E-06 0.00000000E+00
 3 25 0.00000000E+00 0.00000000E+00 0.00000000E+00 0.00000000E+00 0.00000000E+00
 3 26 8.63653891E-07 0.00000000E+00 0.00000000E+00-2.65934239E-06 0.00000000E+00
 3 27 0.00000000E+00-9.12857989E-07 0.00000000E+00 0.00000000E+00 0.00000000E+00
 3 28 0.00000000E+00 7.24974312E-07 1.25569902E-06 0.00000000E+00 0.00000000E+00
 3 29 0.00000000E+00 0.00000000E+00-3.43877631E-06-5.95613411E-06 0.00000000E+00
 3 30 0.00000000E+00 1.13892094E-06 0.00000000E+00-1.31352720E-07 0.00000000E+00
 3 31-1.39667006E-06 0.00000000E+00 0.00000000E+00-1.26531909E-06 0.00000000E+00
 3 32 0.00000000E+00 0.00000000E+00 0.00000000E+00 0.00000000E+00 0.00000000E+00
 3 33 8.63657934E-07 0.00000000E+00 0.00000000E+00-2.65938998E-06 0.00000000E+00
 3 34 0.00000000E+00-9.12804036E-07 0.00000000E+00 0.00000000E+00 0.00000000E+00
 3 35 0.00000000E+00-1.44996132E-06 0.00000000E+00 0.00000000E+00 0.00000000E+00
 3 36 0.00000000E+00 0.00000000E+00 6.87754157E-06 0.00000000E+00 0.00000000E+00
 3 37 0.00000000E+00 1.13890981E-06 0.00000000E+00-2.02930946E-06 0.00000000E+00
 3 38 5.01301610E-07 0.00000000E+00 0.00000000E+00 1.81877177E-11
 4  1-0.00000000E+00-1.96836316E-11-2.04537960E-11-3.75657514E-11 2.29553838E-11
 4  2-0.00000000E+00 1.04324809E-11 9.65405084E-06 9.99965153E-01-0.00000000E+00
 4  3 7.73101149E-08 8.00786726E-03-0.00000000E+00 1.63261689E-08 1.68924664E-03
 4  4-0.00000000E+00 1.60124553E-08 1.65684171E-03-0.00000000E+00-2.70375577E-09
 4  5-2.80183362E-04-0.00000000E+00 8.14683214E-11 8.82741917E-06-0.00000000E+00
 4  6-8.26097694E-10 8.29050506E-10-0.00000000E+00 9.85393019E-05-0.00000000E+00
 4  7-0.00000000E+00 1.31194038E-10-1.38603602E-10-0.00000000E+00-1.63336903E-05
 4  8-0.00000000E+00-0.00000000E+00-0.00000000E+00-0.00000000E+00-0.00000000E+00
 4  9-1.13686572E-06-0.00000000E+00-0.00000000E+00-0.00000000E+00-1.91614932E-11
 4 10 1.98759937E-11-1.45866299E-06-0.00000000E+00-0.00000000E+00-2.23629810E-10
 4 11-2.36082637E-05-0.00000000E+00-1.05579133E-05-0.00000000E+00-1.04347977E-10
 4 12-0.00000000E+00 4.04378851E-10 4.22317228E-05-0.00000000E+00 7.29981825E-11
 4 13 7.55431148E-06-0.00000000E+00 3.37834939E-06-0.00000000E+00 3.50071834E-11
 4 14-0.00000000E+00-1.32944522E-10-1.35135218E-05-0.00000000E+00-0.00000000E+00
 4 15-1.26703018E-11-0.00000000E+00-2.30832899E-06-0.00000000E+00 2.35155003E-06
 4 16-0.00000000E+00-0.00000000E+00-0.00000000E+00 2.02958871E-11-1.20587739E-11
 4 17-0.00000000E+00-0.00000000E+00-0.00000000E+00-5.79871155E-08-2.97790379E-07
 4 18 3.84737860E-08 1.67364457E-06-1.68566111E-05 1.36452246E-06-8.75048581E-06
 4 19-0.00000000E+00-4.39692483E-06-2.13569220E-06-0.00000000E+00-7.54323018E-06
 4 20 4.57082603E-06-0.00000000E+00 2.60839929E-07 7.66522627E-08-3.37492191E-07
 4 21-7.09273962E-07-0.00000000E+00-0.00000000E+00-9.80955172E-07-2.02074891E-06
 4 22 3.00170409E-06 5.27148635E-06-0.00000000E+00-0.00000000E+00-2.00143822E-07
 4 23-4.61429680E-07-0.00000000E+00 4.79066305E-07-0.00000000E+00 1.90935821E-07
 4 24-0.00000000E+00 7.75852928E-08 1.40006573E-07-0.00000000E+00 2.97787222E-07
 4 25-3.84875887E-08-1.67366047E-06 1.68568277E-05-1.36466138E-06-8.75051365E-06
 4 26-0.00000000E+00 4.39678117E-06-2.13561392E-06-0.00000000E+00 7.54315024E-06
 4 27 4.57098047E-06-0.00000000E+00-2.60832210E-07-7.66717680E-08 3.37503978E-07
 4 28-7.09266840E-07-0.00000000E+00-0.00000000E+00 9.80890914E-07 2.02084902E-06
 4 29-3.00173993E-06 5.27149980E-06-0.00000000E+00-0.00000000E+00 2.00167218E-07
 4 30-4.61410988E-07-0.00000000E+00 4.79054680E-07-0.00000000E+00-1.90957252E-07
 4 31-0.00000000E+00-7.75952512E-08 1.39993121E-07-0.00000000E+00 2.83149759E-11
 4 32-2.12613408E-11 1.49763787E-11-1.45410685E-10-8.93684383E-11-6.38699713E-06
 4 33-0.00000000E+00-0.00000000E+00-9.75124172E-06-0.00000000E+00 8.38966835E-11
 4 34-8.49424537E-06-0.00000000E+00-0.00000000E+00-0.00000000E+00-0.00000000E+00
 4 35-8.93409835E-07-0.00000000E+00-0.00000000E+00-7.03530816E-11 4.04893597E-11
 4 36 2.98637219E-11 4.23155964E-06-0.00000000E+00-0.00000000E+00-0.00000000E+00
 4 37 6.12927559E-07-0.00000000E+00-1.09671223E-06-0.00000000E+00-0.00000000E+00
 4 38-0.00000000E+00-0.00000000E+00 2.74383619E-07-0.00000000E+00
 5  1 2.71807360E-11 1.28033893E-10 8.92709201E-11 2.41261663E-10-2.49956677E-11
 5  2-0.00000000E+00-1.30254995E-10 9.99965153E-01-9.65405086E-06-0.00000000E+00
 5  3 8.00786725E-03-7.73107000E-08-0.00000000E+00 1.68924663E-03-1.63289035E-08
 5  4-0.00000000E+00 1.65684171E-03-1.60170047E-08-0.00000000E+00-2.80183361E-04
 5  5 2.70442069E-09-0.00000000E+00 8.82741899E-06-8.18962386E-11-0.00000000E+00
 5  6-8.53374909E-05 8.53375814E-05-9.03896705E-11-9.56402539E-10-0.00000000E+00
 5  7-0.00000000E+00 1.41454293E-05-1.41453558E-05-7.30057806E-11 1.57529969E-10
 5  8-0.00000000E+00-0.00000000E+00 9.84565811E-07-9.84548093E-07-1.77695541E-11
 5  9-0.00000000E+00-0.00000000E+00-0.00000000E+00 1.26322043E-06-1.26325970E-06
 5 10 3.94436186E-11-0.00000000E+00-0.00000000E+00-0.00000000E+00-2.36082377E-05
 5 11 2.25719838E-10-0.00000000E+00 1.01524454E-10-0.00000000E+00-1.05579479E-05
 5 12-0.00000000E+00 4.22317225E-05-4.04359395E-10-0.00000000E+00 7.55428594E-06
 5 13-7.43607628E-11-0.00000000E+00-3.32030460E-11-0.00000000E+00 3.37838339E-06
 5 14-0.00000000E+00-1.35135215E-05 1.32968478E-10-0.00000000E+00-1.56969068E-06
 5 15-1.51251695E-06 1.15490521E-11 1.83869536E-11-0.00000000E+00-1.81615382E-11
 5 16-0.00000000E+00-0.00000000E+00-0.00000000E+00 2.70714418E-06 5.02060638E-08
 5 17-5.02264674E-08-0.00000000E+00-0.00000000E+00-0.00000000E+00 1.71895369E-07
 5 18-2.22205748E-08-9.66279780E-07 9.73234171E-06-7.17484209E-06 1.36466603E-06
 5 19-0.00000000E+00-7.21265966E-06-4.39685346E-06-0.00000000E+00-4.13917082E-06
 5 20-7.54316503E-06-0.00000000E+00 6.23132592E-07-8.17990553E-07 1.94857961E-07
 5 21-1.06319031E-07-0.00000000E+00-0.00000000E+00-3.09831258E-06 4.83137864E-06
 5 22-1.73306606E-06-6.00424760E-07-0.00000000E+00-0.00000000E+00-3.78238907E-08
 5 23-7.07019817E-07-0.00000000E+00 8.70974876E-07-0.00000000E+00-1.78833356E-07
 5 24-0.00000000E+00 2.29579431E-07 7.75917472E-08-0.00000000E+00 1.71891680E-07
 5 25-2.22245728E-08-9.66252316E-07 9.73203873E-06-7.17481836E-06-1.36449534E-06
 5 26-0.00000000E+00-7.21275186E-06 4.39689945E-06-0.00000000E+00-4.13931152E-06
 5 27 7.54307346E-06-0.00000000E+00 6.23134211E-07-8.17990392E-07 1.94856181E-07
 5 28 1.06334426E-07-0.00000000E+00-0.00000000E+00-3.09832638E-06 4.83133700E-06
 5 29-1.73301063E-06 6.00310045E-07-0.00000000E+00-0.00000000E+00-3.78406243E-08
 5 30 7.07028999E-07-0.00000000E+00-8.70980099E-07-0.00000000E+00-1.78824500E-07
 5 31-0.00000000E+00 2.29593025E-07-7.75988435E-08-0.00000000E+00-3.43809400E-07
 5 32 4.44230829E-08 1.93258609E-06-1.94645120E-05-9.53834073E-06 6.68313500E-11
 5 33-0.00000000E+00 4.02857897E-07 8.43487334E-11-0.00000000E+00 8.92604150E-06
 5 34 9.59958631E-11-0.00000000E+00 7.55937116E-07-3.66230196E-07-3.89706919E-07
 5 35-0.00000000E+00-0.00000000E+00-0.00000000E+00-6.59850485E-06 3.13240747E-06
 5 36 3.46609738E-06-4.40363951E-11-0.00000000E+00-0.00000000E+00-2.34267727E-07
 5 37-0.00000000E+00-0.00000000E+00-0.00000000E+00-0.00000000E+00 2.19091802E-07
 5 38-0.00000000E+00 9.52113355E-08-0.00000000E+00-0.00000000E+00
 6  1-3.96310373E-09-1.16865016E-08-6.17862756E-08-1.28568504E-07 9.02420794E-09
 6  2-1.07987784E-08 2.33564774E-08 8.04026053E-06-3.65913126E-05-0.00000000E+00
 6  3 1.14535571E-04-5.21253815E-04-0.00000000E+00-1.10242479E-03 5.01715761E-03
 6  4-0.00000000E+00-8.21102577E-04 3.73685429E-03-0.00000000E+00 5.91457108E-05
 6  5-2.69173362E-04-0.00000000E+00-2.82152390E-05 1.28408145E-04-0.00000000E+00
 6  6 4.78339710E-06-4.78814924E-06 4.75200393E-09 2.51497161E-05-0.00000000E+00
 6  7-0.00000000E+00 3.90904329E-06-3.91423046E-06 5.18619016E-09 2.05560722E-05
 6  8-0.00000000E+00-0.00000000E+00-2.89643426E-06 2.89550986E-06 9.24426400E-10
 6  9-1.52184427E-05-0.00000000E+00-0.00000000E+00 1.28932429E-04-1.28956653E-04
 6 10 2.42236148E-08 6.77612087E-04-0.00000000E+00-0.00000000E+00 2.19835462E-06
 6 11-1.00130652E-05-0.00000000E+00-4.47801886E-06-0.00000000E+00 9.86410424E-07
 6 12-0.00000000E+00-3.93581264E-06 1.79119555E-05-0.00000000E+00-6.27321047E-06
 6 13 2.85735597E-05-0.00000000E+00 1.27784878E-05-0.00000000E+00-2.81493491E-06
 6 14-0.00000000E+00 1.12313299E-05-5.11139409E-05-0.00000000E+00-4.23932441E-06
 6 15-1.12812965E-06 7.91646176E-10 1.31157827E-05-0.00000000E+00-2.38190779E-05
 6 16-0.00000000E+00-0.00000000E+00-0.00000000E+00 4.71498415E-06 2.73189845E-06
 6 17-2.73328889E-06-0.00000000E+00-0.00000000E+00 1.43599775E-05 7.59303096E-01
 6 18-7.85491402E-04 3.37927954E-02 3.56230787E-03 2.98441497E-04-5.20308111E-04
 6 19-0.00000000E+00-1.78252437E-04 3.23411260E-04-0.00000000E+00 2.91103701E-04
 6 20-5.39419810E-04-0.00000000E+00 7.17297743E-06 7.47015352E-07-7.91999278E-06
 6 21 1.12035893E-05-0.00000000E+00-0.00000000E+00-1.37883814E-05 8.70426173E-06
 6 22 5.08411964E-06-3.61437036E-05-0.00000000E+00-0.00000000E+00-6.50589924E-06
 6 23-1.25062632E-06-0.00000000E+00-1.41745891E-06-0.00000000E+00 1.05926605E-05
 6 24-0.00000000E+00-1.86408071E-06 3.09535020E-06-0.00000000E+00-5.88273271E-01
 6 25 6.08564494E-04-2.61811106E-02-2.75993342E-03-2.29082385E-04-4.04343167E-04
 6 26-0.00000000E+00 1.28863565E-04 2.55893044E-04-0.00000000E+00-2.03356356E-04
 6 27-4.30709115E-04-0.00000000E+00-2.95316956E-06-3.18494847E-06 6.13811803E-06
 6 28 1.04168646E-05-0.00000000E+00-0.00000000E+00 3.24182643E-06 7.03381939E-07
 6 29-3.94520837E-06-3.29647289E-05-0.00000000E+00-0.00000000E+00 4.99411031E-06
 6 30-2.44153992E-07-0.00000000E+00-2.02179939E-06-0.00000000E+00-8.22826267E-06
 6 31-0.00000000E+00 1.52796059E-06 2.34936634E-06-0.00000000E+00-1.70918860E-01
 6 32 1.76815016E-04-7.60674642E-03-8.01888258E-04 1.35018717E-04-5.47660907E-06
 6 33-0.00000000E+00-8.31058039E-05 2.36817637E-05-0.00000000E+00 1.37911540E-04
 6 34-5.68496294E-05-0.00000000E+00 1.36098939E-06-3.14520316E-06 1.78421377E-06
 6 35 7.71315352E-06-0.00000000E+00-0.00000000E+00-6.79311962E-06 7.94189249E-06
 6 36-1.14877287E-06-2.20387147E-05-0.00000000E+00-0.00000000E+00 2.15383205E-06
 6 37-1.42847697E-06-0.00000000E+00 2.13169704E-06-0.00000000E+00-2.07668115E-06
 6 38-0.00000000E+00-8.12987776E-07-2.15194079E-07-0.00000000E+00
 7  1 1.17872048E-09 3.51006155E-09 1.81224094E-08 3.76899999E-08-2.56629746E-09
 7  2 3.10017072E-09-6.81721053E-09-3.65913861E-05-8.04027575E-06 0.00000000E+00
 7  3-5.21253812E-04-1.14535571E-04 0.00000000E+00 5.01715778E-03 1.10242469E-03
 7  4 0.00000000E+00 3.73685440E-03 8.21102494E-04 0.00000000E+00-2.69173379E-04
 7  5-5.91457014E-05 0.00000000E+00 1.28408161E-04 2.82152327E-05 0.00000000E+00
 7  6-2.17796286E-05 2.17810039E-05-1.37492729E-09 5.52612995E-06 0.00000000E+00
 7  7 0.00000000E+00-1.78013380E-05 1.78028363E-05-1.49384030E-09 4.51676864E-06
 7  8 0.00000000E+00 0.00000000E+00 1.31796901E-05-1.31794266E-05-2.63739206E-10
 7  9-3.34398016E-06 0.00000000E+00 0.00000000E+00-5.86825721E-04 5.86832846E-04
 7 10-7.12602919E-09 1.48892329E-04 0.00000000E+00 0.00000000E+00-1.00125500E-05
 7 11-2.20018208E-06 0.00000000E+00-9.83958425E-07 0.00000000E+00-4.47870955E-06
 7 12 0.00000000E+00 1.79119550E-05 3.93581244E-06 0.00000000E+00 2.85720036E-05
 7 13 6.27850250E-06 0.00000000E+00 2.80783518E-06 0.00000000E+00 1.27805709E-05
 7 14 0.00000000E+00-5.11139364E-05-1.12313302E-05 0.00000000E+00 1.92945328E-05
 7 15 5.13540420E-06-2.37844164E-10 2.88194104E-06 0.00000000E+00-5.23378295E-06
 7 16 0.00000000E+00 0.00000000E+00 0.00000000E+00-2.14572684E-05-1.24358964E-05
 7 17 1.24363140E-05 0.00000000E+00 0.00000000E+00 3.15532702E-06-2.40970532E-01
 7 18 2.49281643E-04-1.07243970E-02-1.13052547E-03-9.98073141E-05 1.62182270E-04
 7 19 0.00000000E+00 7.86001245E-05-8.99177187E-05 0.00000000E+00-1.45269107E-04
 7 20 1.40655537E-04 0.00000000E+00-8.49038486E-06 5.97687587E-06 2.51350899E-06
 7 21 5.87108053E-07 0.00000000E+00 0.00000000E+00 2.21310164E-05-2.05174486E-05
 7 22-1.61356781E-06-3.66266564E-07 0.00000000E+00 0.00000000E+00 2.17661223E-06
 7 23 2.12526645E-06 0.00000000E+00-1.75338061E-06 0.00000000E+00-3.31162378E-06
 7 24 0.00000000E+00 3.91392033E-07-1.09796354E-06 0.00000000E+00-5.37074749E-01
 7 25 5.55598827E-04-2.39025196E-02-2.51971738E-03-2.15720642E-04-3.65356738E-04
 7 26 0.00000000E+00 1.46083021E-04 2.17208777E-04 0.00000000E+00-2.53917262E-04
 7 27-3.53822814E-04 0.00000000E+00-1.07154109E-05 5.11290546E-06 5.60250548E-06
 7 28 4.16357489E-06 0.00000000E+00 0.00000000E+00 2.58730664E-05-2.22754617E-05
 7 29-3.59760469E-06-1.48189683E-05 0.00000000E+00 0.00000000E+00 4.70351751E-06
 7 30-2.45371604E-06 0.00000000E+00 9.97675921E-07 0.00000000E+00-7.44716401E-06
 7 31 0.00000000E+00 1.13673308E-06 2.29432960E-06 0.00000000E+00 7.78012728E-01
 7 32-8.04847653E-04 3.46254679E-02 3.65010020E-03-6.14599899E-04-1.20336775E-06
 7 33 0.00000000E+00 3.78302994E-04 5.20359960E-06 0.00000000E+00-6.27792188E-04
 7 34-1.24916074E-05 0.00000000E+00-6.19751265E-06 1.43141955E-05-8.11668280E-06
 7 35 1.69481921E-06 0.00000000E+00 0.00000000E+00 3.09302207E-05-3.61442690E-05
 7 36 5.21404833E-06-4.84259284E-06 0.00000000E+00 0.00000000E+00-9.80347795E-06
 7 37-3.13883411E-07 0.00000000E+00 4.68398236E-07 0.00000000E+00 9.45124957E-06
 7 38 0.00000000E+00 3.70149629E-06-4.72794506E-08 0.00000000E+00
 8  1-6.02829798E-05-1.77641064E-04-9.40721612E-04-1.95751137E-03 1.37594692E-04
 8  2-1.64261623E-04 3.55746797E-04-1.23386870E-09 2.22391723E-09 0.00000000E+00
 8  3-1.75838398E-08 3.20244092E-08 0.00000000E+00 1.69088942E-07-3.08150145E-07
 8  4 0.00000000E+00 1.25936937E-07-2.29481976E-07 0.00000000E+00-9.03131671E-09
 8  5 1.65287576E-08 0.00000000E+00 4.34322219E-09-7.89028387E-09 0.00000000E+00
 8  6-3.60979332E-05-3.60965163E-05 7.21944496E-05-1.52652965E-09 0.00000000E+00
 8  7 0.00000000E+00-3.95079376E-05-3.95067333E-05 7.90146709E-05-1.27447089E-09
 8  8 0.00000000E+00 0.00000000E+00-7.03511234E-06-7.03598692E-06 1.40710993E-05
 8  9 9.31721999E-10 0.00000000E+00 0.00000000E+00-1.84459589E-04-1.84420055E-04
 8 10 3.68879644E-04-4.16297835E-08 0.00000000E+00 0.00000000E+00-2.78242645E-05
 8 11 6.17782487E-10 0.00000000E+00 2.76173598E-10 0.00000000E+00 3.73295611E-05
 8 12 0.00000000E+00 6.08382796E-10-1.10501572E-09 0.00000000E+00 8.05970515E-05
 8 13-1.75606732E-09 0.00000000E+00-7.85411040E-10 0.00000000E+00-1.08130574E-04
 8 14 0.00000000E+00-1.71574744E-09 3.14142258E-09 0.00000000E+00 4.56790067E-06
 8 15 4.56743084E-06 1.21793443E-05-8.01516811E-10 0.00000000E+00 1.45453903E-09
 8 16 0.00000000E+00 0.00000000E+00 0.00000000E+00 2.67358704E-06-1.06976533E-05
 8 17-1.06968280E-05 0.00000000E+00 0.00000000E+00-8.76121238E-10 5.63224165E-01
 8 18-5.68006395E-04 2.50659961E-02 2.46775435E-03 2.26932487E-04-3.93058650E-04
 8 19 0.00000000E+00-1.55108190E-04 2.68655118E-04 0.00000000E+00 2.74940710E-04
 8 20-4.76211177E-04 0.00000000E+00-2.36353462E-06-9.36395964E-06 1.17274943E-05
 8 21 7.00035919E-06 0.00000000E+00 0.00000000E+00 1.16548929E-05 3.83339969E-05
 8 22-4.99888898E-05-2.66790205E-05 0.00000000E+00 0.00000000E+00-1.05012121E-07
 8 23-2.69631037E-06 0.00000000E+00-1.20574218E-06 0.00000000E+00 2.92555714E-06
 8 24 0.00000000E+00-2.78466859E-06 4.82322214E-06 0.00000000E+00 5.63306951E-01
 8 25-5.68092041E-04 2.50696805E-02 2.46814277E-03 2.26964893E-04 3.93115451E-04
 8 26 0.00000000E+00-1.55127057E-04-2.68690712E-04 0.00000000E+00 2.74971091E-04
 8 27 4.76270785E-04 0.00000000E+00-2.36292693E-06-9.36370475E-06 1.17266317E-05
 8 28-7.00170279E-06 0.00000000E+00 0.00000000E+00 1.16538452E-05 3.83344930E-05
 8 29-4.99883382E-05 2.66832743E-05 0.00000000E+00 0.00000000E+00-1.05728700E-07
 8 30 2.69639545E-06 0.00000000E+00 1.20596516E-06 0.00000000E+00 2.92672342E-06
 8 31 0.00000000E+00-2.78487349E-06-4.82355927E-06 0.00000000E+00 5.63304878E-01
 8 32-5.68089875E-04 2.50695883E-02 2.46813304E-03-4.53928810E-04 3.33836089E-10
 8 33 0.00000000E+00 3.10255438E-04-1.45731864E-09 0.00000000E+00-5.49946488E-04
 8 34 3.49141825E-09 0.00000000E+00-1.28647562E-05 1.13810707E-06 1.17266491E-05
 8 35-4.70633635E-10 0.00000000E+00 0.00000000E+00 5.16766955E-05-1.68834377E-06
 8 36-4.99883517E-05 1.35557410E-09 0.00000000E+00 0.00000000E+00-4.77604784E-06
 8 37 8.11040810E-11 0.00000000E+00-1.22367133E-10 0.00000000E+00 8.38031079E-07
 8 38 0.00000000E+00 5.56970950E-06 1.35545901E-11 0.00000000E+00
 9  1-6.63977240E-04-5.59974267E-03 9.97753929E-01-1.05384939E-02-6.52851448E-03
 9  2-8.64312311E-03-1.84259466E-04-0.00000000E+00-0.00000000E+00-0.00000000E+00
 9  3-6.43470840E-11 1.74750926E-11-0.00000000E+00 4.67012896E-10 3.24811788E-10
 9  4-0.00000000E+00 3.69649645E-10 3.98881141E-10-0.00000000E+00-1.46528749E-11
 9  5-4.41123456E-11-0.00000000E+00-0.00000000E+00-0.00000000E+00-0.00000000E+00
 9  6-2.61064743E-03-2.61064724E-03 5.22129467E-03-2.91362006E-11-0.00000000E+00
 9  7-0.00000000E+00 2.21861482E-04 2.21861700E-04-4.43723182E-04-3.77700954E-11
 9  8-0.00000000E+00-0.00000000E+00 4.87933476E-04 4.87933610E-04-9.75867086E-04
 9  9-1.71190705E-11-0.00000000E+00-0.00000000E+00-2.44595040E-05-2.44593549E-05
 9 10 4.89188589E-05-0.00000000E+00-0.00000000E+00-0.00000000E+00-7.68313700E-05
 9 11-0.00000000E+00-0.00000000E+00-0.00000000E+00-0.00000000E+00 1.03080151E-04
 9 12-0.00000000E+00-5.53392077E-11-0.00000000E+00-0.00000000E+00-3.13770160E-04
 9 13-0.00000000E+00-0.00000000E+00-0.00000000E+00-0.00000000E+00 4.20966784E-04
 9 14-0.00000000E+00 5.94153812E-11-0.00000000E+00-0.00000000E+00 4.35548577E-06
 9 15 4.35551580E-06 1.16146340E-05-0.00000000E+00-0.00000000E+00-0.00000000E+00
 9 16-0.00000000E+00-0.00000000E+00-0.00000000E+00 2.55028964E-06-1.02012236E-05
 9 17-1.02012764E-05-0.00000000E+00-0.00000000E+00-0.00000000E+00-6.23342288E-05
 9 18 1.34506371E-03 1.99528721E-04 9.29381453E-04 3.93317759E-04-6.81246316E-04
 9 19-0.00000000E+00 7.40852930E-04-1.28319495E-03-0.00000000E+00 3.24435088E-04
 9 20-5.61938227E-04-0.00000000E+00-1.70071570E-05 7.37596496E-05-5.67524926E-05
 9 21-9.07668432E-05-0.00000000E+00-0.00000000E+00-6.33164453E-05 3.20794758E-04
 9 22-2.57478313E-04-3.84111069E-04-0.00000000E+00-0.00000000E+00-3.87907290E-05
 9 23-2.85620203E-05-0.00000000E+00-1.27732897E-05-0.00000000E+00 8.15419732E-05
 9 24-0.00000000E+00-2.94987491E-05 5.10932610E-05-0.00000000E+00-6.23342808E-05
 9 25 1.34506362E-03 1.99528745E-04 9.29381602E-04 3.93317759E-04 6.81246309E-04
 9 26-0.00000000E+00 7.40852913E-04 1.28319495E-03-0.00000000E+00 3.24435126E-04
 9 27 5.61938291E-04-0.00000000E+00-1.70071511E-05 7.37596439E-05-5.67524928E-05
 9 28 9.07668426E-05-0.00000000E+00-0.00000000E+00-6.33164533E-05 3.20794777E-04
 9 29-2.57478324E-04 3.84111084E-04-0.00000000E+00-0.00000000E+00-3.87907630E-05
 9 30 2.85620295E-05-0.00000000E+00 1.27733072E-05-0.00000000E+00 8.15419639E-05
 9 31-0.00000000E+00-2.94986941E-05-5.10932909E-05-0.00000000E+00-6.23343665E-05
 9 32 1.34506353E-03 1.99528749E-04 9.29381903E-04-7.86635451E-04-0.00000000E+00
 9 33-0.00000000E+00-1.48170606E-03-0.00000000E+00-0.00000000E+00-6.48870369E-04
 9 34-0.00000000E+00-0.00000000E+00 1.19143043E-04-6.23905467E-05-5.67524967E-05
 9 35-0.00000000E+00-0.00000000E+00-0.00000000E+00 5.12850354E-04-2.55371987E-04
 9 36-2.57478367E-04-0.00000000E+00-0.00000000E+00-0.00000000E+00-8.82615479E-05
 9 37-3.12014629E-11-0.00000000E+00-0.00000000E+00-0.00000000E+00 5.94179113E-05
 9 38-0.00000000E+00 5.89973811E-05 4.16187552E-11-0.00000000E+00
10  1 0.00000000E+00 0.00000000E+00 0.00000000E+00 0.00000000E+00 0.00000000E+00
10  2 0.00000000E+00 0.00000000E+00 0.00000000E+00 0.00000000E+00-8.03427349E-03
10  3 0.00000000E+00 0.00000000E+00 9.99781185E-01 0.00000000E+00 0.00000000E+00
10  4-4.97231373E-03 0.00000000E+00 0.00000000E+00-1.87801076E-02 0.00000000E+00
10  5 0.00000000E+00-9.01885563E-03 0.00000000E+00 0.00000000E+00 5.58393290E-04
10  6 0.00000000E+00 0.00000000E+00 0.00000000E+00 0.00000000E+00-5.40460853E-11
10  7 0.00000000E+00 0.00000000E+00 0.00000000E+00 0.00000000E+00 0.00000000E+00