 !Step 2: single point gmcpt calculation averaging 10 states
 !        for FeF4- at optimized geometry. The UHF orbitals at
 !        the MP2 optimized structure is taken as the initial
 !        guess of orbitals in the $VEC group. 
 $system kdiag=3 mwords=100 memddi=1000 parall=.t. $end
 $contrl runtyp=energy ispher=1 $end
 $contrl icut=9 itol=20 inttyp=rysquad qmttol=1.0d-05 nosym=0 $end
 $scf    npunch=2 conv=1.0d-06 dirscf=.t. diis=.t. soscf=.f. ethrsh=10.0 $end
 $contrl scftyp=rhf  mult=1 maxit=200 icharg=24 $end
 $guess  guess=moread norb=158 purify=.t. norder=1
         iorder(13)=18,19,20,13,14,15,16,17 $end
 $basis  gbasis=cct $end
 $mcscf  cistep=gmcci fullnr=.t. finci=mos
         acurcy=1.d-6 maxit=100 $end
 $trans  dirtrf=.t. $end
 $mrmp   mrpt=gmcpt rdvecs=.f. $end
 $gmcpt  nmofzc=27 nmodoc=0 nmoact=5 nelact=5 stsym(1)=A nsolut=100
         reftyp=ormas nspace=1 mstart(1)=28 mine(1)=5 maxe(1)=5
         kstate(1)=1
         wstate(1)=1
         iwgt=0 thrwgt=-1.0 krot=.f. kszdoe=.f. knospn=.f.
         thrde=-1.0 edshft=0.02 $end
 $statpt hssend=.t. $end
 $data
 FeH4- 10 states calculation at opt geometry.
 dnh 3

 Co     27.0   0.0  0.0  0.0
 F       9.0   1.715  0.0  0.0
 $end
--- CLOSED SHELL ORBITALS --- GENERATED AT Mon Mar 13 12:02:11 2023
 FeH4- 10 states calculation at opt geometry.                                   
E(RHF)=    -1495.5854318949, E(NUC)=  268.2284123203,    9 ITERS
 $VEC   
 1  1 9.82389196E-01-1.86863265E-01-3.73257307E-04 3.63447128E-04-1.74800243E-04
 1  2 2.48044076E-04-2.94600893E-05 0.00000000E+00 0.00000000E+00 0.00000000E+00
 1  3 0.00000000E+00 0.00000000E+00 0.00000000E+00 0.00000000E+00 0.00000000E+00
 1  4 0.00000000E+00 0.00000000E+00 0.00000000E+00 0.00000000E+00 0.00000000E+00
 1  5 0.00000000E+00 0.00000000E+00 0.00000000E+00 0.00000000E+00 0.00000000E+00
 1  6-4.45507173E-06-4.45507173E-06 8.91014346E-06 0.00000000E+00 0.00000000E+00
 1  7 0.00000000E+00-6.92531623E-06-6.92531623E-06 1.38506325E-05 0.00000000E+00
 1  8 0.00000000E+00 0.00000000E+00-3.30040066E-06-3.30040066E-06 6.60080132E-06
 1  9 0.00000000E+00 0.00000000E+00 0.00000000E+00 7.99997643E-07 7.99997643E-07
 1 10-1.59999529E-06 0.00000000E+00 0.00000000E+00 0.00000000E+00 5.38075789E-07
 1 11 0.00000000E+00 0.00000000E+00 0.00000000E+00 0.00000000E+00-7.21904425E-07
 1 12 0.00000000E+00 0.00000000E+00 0.00000000E+00 0.00000000E+00-3.96140371E-06
 1 13 0.00000000E+00 0.00000000E+00 0.00000000E+00 0.00000000E+00 5.31478079E-06
 1 14 0.00000000E+00 0.00000000E+00 0.00000000E+00 0.00000000E+00-8.32464567E-08
 1 15-8.32464567E-08-2.21990551E-07 0.00000000E+00 0.00000000E+00 0.00000000E+00
 1 16 0.00000000E+00 0.00000000E+00 0.00000000E+00-4.87441339E-08 1.94976536E-07
 1 17 1.94976536E-07 0.00000000E+00 0.00000000E+00 0.00000000E+00-1.32825994E-06
 1 18-2.50091691E-06-4.58416441E-07 1.08990140E-05-3.53637507E-07 6.12518130E-07
 1 19 0.00000000E+00 9.00504715E-07-1.55971992E-06 0.00000000E+00 5.58135425E-06
 1 20-9.66718914E-06 0.00000000E+00 9.24886222E-09-4.80058674E-07 4.70809812E-07
 1 21 4.89307536E-07 0.00000000E+00 0.00000000E+00-2.30970685E-07 2.31426636E-06
 1 22-2.08329568E-06-2.54523705E-06 0.00000000E+00 0.00000000E+00 5.84226396E-08
 1 23-7.73728845E-08 0.00000000E+00-3.46022059E-08 0.00000000E+00 1.52817536E-09
 1 24 0.00000000E+00-7.99103715E-08 1.38408823E-07 0.00000000E+00-1.32825994E-06
 1 25-2.50091691E-06-4.58416441E-07 1.08990140E-05-3.53637507E-07-6.12518130E-07
 1 26 0.00000000E+00 9.00504715E-07 1.55971992E-06 0.00000000E+00 5.58135425E-06
 1 27 9.66718914E-06 0.00000000E+00 9.24886222E-09-4.80058674E-07 4.70809812E-07
 1 28-4.89307536E-07 0.00000000E+00 0.00000000E+00-2.30970685E-07 2.31426636E-06
 1 29-2.08329568E-06 2.54523705E-06 0.00000000E+00 0.00000000E+00 5.84226396E-08
 1 30 7.73728845E-08 0.00000000E+00 3.46022059E-08 0.00000000E+00 1.52817536E-09
 1 31 0.00000000E+00-7.99103715E-08-1.38408823E-07 0.00000000E+00-1.32825994E-06
 1 32-2.50091691E-06-4.58416441E-07 1.08990140E-05 7.07275014E-07 0.00000000E+00
 1 33 0.00000000E+00-1.80100943E-06 0.00000000E+00 0.00000000E+00-1.11627085E-05
 1 34 0.00000000E+00 0.00000000E+00-7.24712442E-07 2.53902630E-07 4.70809812E-07
 1 35 0.00000000E+00 0.00000000E+00 0.00000000E+00 3.58688488E-06-1.50358921E-06
 1 36-2.08329568E-06 0.00000000E+00 0.00000000E+00 0.00000000E+00-7.55911275E-08
 1 37 0.00000000E+00 0.00000000E+00 0.00000000E+00 0.00000000E+00-5.84046033E-08
 1 38 0.00000000E+00 1.59820743E-07 0.00000000E+00 0.00000000E+00
 2  1 1.87017756E-01 9.82777145E-01 1.94286173E-03 7.11858562E-03-2.98702307E-03
 2  2 5.26507153E-03-6.98589848E-04 0.00000000E+00 0.00000000E+00 0.00000000E+00
 2  3 0.00000000E+00 0.00000000E+00 0.00000000E+00 0.00000000E+00 0.00000000E+00
 2  4 0.00000000E+00 0.00000000E+00 0.00000000E+00 0.00000000E+00 0.00000000E+00
 2  5 0.00000000E+00 0.00000000E+00 0.00000000E+00 0.00000000E+00 0.00000000E+00
 2  6 3.59671608E-05 3.59671608E-05-7.19343217E-05 0.00000000E+00 0.00000000E+00
 2  7 0.00000000E+00-1.30443842E-04-1.30443842E-04 2.60887684E-04 0.00000000E+00
 2  8 0.00000000E+00 0.00000000E+00-5.51501543E-06-5.51501543E-06 1.10300309E-05
 2  9 0.00000000E+00 0.00000000E+00 0.00000000E+00-3.32586708E-07-3.32586708E-07
 2 10 6.65173416E-07 0.00000000E+00 0.00000000E+00 0.00000000E+00 5.34885877E-05
 2 11 0.00000000E+00 0.00000000E+00 0.00000000E+00 0.00000000E+00-7.17624709E-05
 2 12 0.00000000E+00 0.00000000E+00 0.00000000E+00 0.00000000E+00-3.55572063E-05
 2 13 0.00000000E+00 0.00000000E+00 0.00000000E+00 0.00000000E+00 4.77049982E-05
 2 14 0.00000000E+00 0.00000000E+00 0.00000000E+00 0.00000000E+00 9.81759838E-07
 2 15 9.81759838E-07 2.61802624E-06 0.00000000E+00 0.00000000E+00 0.00000000E+00
 2 16 0.00000000E+00 0.00000000E+00 0.00000000E+00 5.74859699E-07-2.29943879E-06
 2 17-2.29943879E-06 0.00000000E+00 0.00000000E+00 0.00000000E+00-6.49510930E-06
 2 18-1.09796215E-05-5.51342610E-06 1.72523765E-04 1.56576280E-06-2.71198072E-06
 2 19 0.00000000E+00 9.44319377E-06-1.63560914E-05 0.00000000E+00 9.65975219E-05
 2 20-1.67311816E-04 0.00000000E+00-3.03937336E-06 7.22002523E-06-4.18065187E-06
 2 21-1.02593986E-05 0.00000000E+00 0.00000000E+00 4.51047369E-06-1.27287563E-07
 2 22-4.38318612E-06 4.63776125E-06 0.00000000E+00 0.00000000E+00 1.21202583E-05
 2 23 7.16476145E-06 0.00000000E+00 3.20417873E-06 0.00000000E+00-2.36607667E-05
 2 24 0.00000000E+00 7.39973380E-06-1.28167149E-05 0.00000000E+00-6.49510930E-06
 2 25-1.09796215E-05-5.51342610E-06 1.72523765E-04 1.56576280E-06 2.71198072E-06
 2 26 0.00000000E+00 9.44319377E-06 1.63560914E-05 0.00000000E+00 9.65975219E-05
 2 27 1.67311816E-04 0.00000000E+00-3.03937336E-06 7.22002523E-06-4.18065187E-06
 2 28 1.02593986E-05 0.00000000E+00 0.00000000E+00 4.51047369E-06-1.27287563E-07
 2 29-4.38318612E-06-4.63776125E-06 0.00000000E+00 0.00000000E+00 1.21202583E-05
 2 30-7.16476145E-06 0.00000000E+00-3.20417873E-06 0.00000000E+00-2.36607667E-05
 2 31 0.00000000E+00 7.39973380E-06 1.28167149E-05 0.00000000E+00-6.49510930E-06
 2 32-1.09796215E-05-5.51342610E-06 1.72523765E-04-3.13152560E-06 0.00000000E+00
 2 33 0.00000000E+00-1.88863875E-05 0.00000000E+00 0.00000000E+00-1.93195044E-04
 2 34 0.00000000E+00 0.00000000E+00 1.23497245E-05-8.16907266E-06-4.18065187E-06
 2 35 0.00000000E+00 0.00000000E+00 0.00000000E+00-2.44616819E-06 6.82935431E-06
 2 36-4.38318612E-06 0.00000000E+00 0.00000000E+00 0.00000000E+00 2.45299892E-05
 2 37 0.00000000E+00 0.00000000E+00 0.00000000E+00 0.00000000E+00-1.81109663E-05
 2 38 0.00000000E+00-1.47994676E-05 0.00000000E+00 0.00000000E+00
 3  1 0.00000000E+00 0.00000000E+00 0.00000000E+00 0.00000000E+00 0.00000000E+00
 3  2 0.00000000E+00 0.00000000E+00 1.00006258E+00 0.00000000E+00 0.00000000E+00
 3  3 1.98710709E-03 0.00000000E+00 0.00000000E+00-4.16961937E-02 0.00000000E+00
 3  4 0.00000000E+00-4.12738918E-02 0.00000000E+00 0.00000000E+00 6.26660772E-03
 3  5 0.00000000E+00 0.00000000E+00-1.68675865E-04 0.00000000E+00 0.00000000E+00
 3  6-1.53924176E-04 1.53924176E-04 0.00000000E+00 0.00000000E+00 0.00000000E+00
 3  7 0.00000000E+00-3.13048779E-04 3.13048779E-04 0.00000000E+00 0.00000000E+00
 3  8 0.00000000E+00 0.00000000E+00-1.85821778E-04 1.85821778E-04 0.00000000E+00
 3  9 0.00000000E+00 0.00000000E+00 0.00000000E+00 2.04235693E-05-2.04235693E-05
 3 10 0.00000000E+00 0.00000000E+00 0.00000000E+00 0.00000000E+00 7.44629130E-05
 3 11 0.00000000E+00 0.00000000E+00 0.00000000E+00 0.00000000E+00 3.33008271E-05
 3 12 0.00000000E+00-1.33203308E-04 0.00000000E+00 0.00000000E+00-3.16874790E-05
 3 13 0.00000000E+00 0.00000000E+00 0.00000000E+00 0.00000000E+00-1.41710714E-05
 3 14 0.00000000E+00 5.66842856E-05 0.00000000E+00 0.00000000E+00 1.54950701E-05
 3 15 1.24493148E-05 0.00000000E+00 0.00000000E+00 0.00000000E+00 0.00000000E+00
 3 16 0.00000000E+00 0.00000000E+00 0.00000000E+00-2.45438346E-05-2.67511757E-06
 3 17 2.67511757E-06 0.00000000E+00 0.00000000E+00 0.00000000E+00-9.23443998E-06
 3 18-1.53557889E-05 1.29912370E-05-1.19261492E-04-4.05827060E-07-6.45091836E-06
 3 19 0.00000000E+00-1.67919556E-05 5.45168890E-05 0.00000000E+00-6.80212715E-05
 3 20 1.03089994E-04 0.00000000E+00-2.12033559E-06-2.61828843E-06 4.73862403E-06
 3 21 7.20218945E-06 0.00000000E+00 0.00000000E+00 1.89188604E-05-2.45301471E-05
 3 22 5.61128676E-06 2.85981066E-06 0.00000000E+00 0.00000000E+00-7.77008689E-06
 3 23-4.88500471E-06 0.00000000E+00-5.31968816E-06 0.00000000E+00 1.79766481E-05
 3 24 0.00000000E+00-7.55198263E-06 1.18736097E-05 0.00000000E+00-9.23443998E-06
 3 25-1.53557889E-05 1.29912370E-05-1.19261492E-04-4.05827060E-07 6.45091836E-06
 3 26 0.00000000E+00-1.67919556E-05-5.45168890E-05 0.00000000E+00-6.80212715E-05
 3 27-1.03089994E-04 0.00000000E+00-2.12033559E-06-2.61828843E-06 4.73862403E-06
 3 28-7.20218945E-06 0.00000000E+00 0.00000000E+00 1.89188604E-05-2.45301471E-05
 3 29 5.61128676E-06-2.85981066E-06 0.00000000E+00 0.00000000E+00-7.77008689E-06
 3 30 4.88500471E-06 0.00000000E+00 5.31968816E-06 0.00000000E+00 1.79766481E-05
 3 31 0.00000000E+00-7.55198263E-06-1.18736097E-05 0.00000000E+00 1.84688800E-05
 3 32 3.07115779E-05-2.59824739E-05 2.38522985E-04 1.07674913E-05 0.00000000E+00
 3 33 0.00000000E+00-1.11217977E-04 0.00000000E+00 0.00000000E+00-2.46578378E-04
 3 34 0.00000000E+00 0.00000000E+00 1.57908846E-05-6.31363656E-06-9.47724805E-06
 3 35 0.00000000E+00 0.00000000E+00 0.00000000E+00 3.16255065E-05-2.04029330E-05
 3 36-1.12225735E-05 0.00000000E+00 0.00000000E+00 0.00000000E+00 3.97018069E-05
 3 37 0.00000000E+00 0.00000000E+00 0.00000000E+00 0.00000000E+00-2.51478854E-05
 3 38 0.00000000E+00-2.81176779E-05 0.00000000E+00 0.00000000E+00
 4  1 0.00000000E+00 0.00000000E+00 0.00000000E+00 0.00000000E+00 0.00000000E+00
 4  2 0.00000000E+00 0.00000000E+00 0.00000000E+00 1.00006258E+00 0.00000000E+00
 4  3 0.00000000E+00 1.98710709E-03 0.00000000E+00 0.00000000E+00-4.16961937E-02
 4  4 0.00000000E+00 0.00000000E+00-4.12738918E-02 0.00000000E+00 0.00000000E+00
 4  5 6.26660772E-03 0.00000000E+00 0.00000000E+00-1.68675865E-04 0.00000000E+00
 4  6 0.00000000E+00 0.00000000E+00 0.00000000E+00 1.77736329E-04 0.00000000E+00
 4  7 0.00000000E+00 0.00000000E+00 0.00000000E+00 0.00000000E+00 3.61477593E-04
 4  8 0.00000000E+00 0.00000000E+00 0.00000000E+00 0.00000000E+00 0.00000000E+00
 4  9 2.14568507E-04 0.00000000E+00 0.00000000E+00 0.00000000E+00 0.00000000E+00
 4 10 0.00000000E+00-2.35831064E-05 0.00000000E+00 0.00000000E+00 0.00000000E+00
 4 11 7.44629130E-05 0.00000000E+00 3.33008271E-05 0.00000000E+00 0.00000000E+00
 4 12 0.00000000E+00 0.00000000E+00-1.33203308E-04 0.00000000E+00 0.00000000E+00
 4 13-3.16874790E-05 0.00000000E+00-1.41710714E-05 0.00000000E+00 0.00000000E+00
 4 14 0.00000000E+00 0.00000000E+00 5.66842856E-05 0.00000000E+00 0.00000000E+00
 4 15 0.00000000E+00 0.00000000E+00 1.99727821E-05 0.00000000E+00-2.22751568E-05
 4 16 0.00000000E+00 0.00000000E+00 0.00000000E+00 0.00000000E+00 0.00000000E+00
 4 17 0.00000000E+00 0.00000000E+00 0.00000000E+00 3.08895970E-06 1.59945192E-05
 4 18 2.65970066E-05-2.25014825E-05 2.06566964E-04-6.45091836E-06 7.04305184E-06
 4 19 0.00000000E+00 5.45168890E-05-7.97426366E-05 0.00000000E+00 1.03089994E-04
 4 20-1.87059343E-04 0.00000000E+00-2.13351024E-06 1.03410478E-05-8.20753757E-06
 4 21-8.60386523E-06 0.00000000E+00 0.00000000E+00 2.38284820E-06 7.33618556E-06
 4 22-9.71903376E-06-2.83875211E-05 0.00000000E+00 0.00000000E+00 1.41328114E-05
 4 23 1.28979010E-05 0.00000000E+00 3.95809609E-06 0.00000000E+00-3.08347659E-05
 4 24 0.00000000E+00 1.18736097E-05-2.12624462E-05 0.00000000E+00-1.59945192E-05
 4 25-2.65970066E-05 2.25014825E-05-2.06566964E-04 6.45091836E-06 7.04305184E-06
 4 26 0.00000000E+00-5.45168890E-05-7.97426366E-05 0.00000000E+00-1.03089994E-04
 4 27-1.87059343E-04 0.00000000E+00 2.13351024E-06-1.03410478E-05 8.20753757E-06
 4 28-8.60386523E-06 0.00000000E+00 0.00000000E+00-2.38284820E-06-7.33618556E-06
 4 29 9.71903376E-06-2.83875211E-05 0.00000000E+00 0.00000000E+00-1.41328114E-05
 4 30 1.28979010E-05 0.00000000E+00 3.95809609E-06 0.00000000E+00 3.08347659E-05
 4 31 0.00000000E+00-1.18736097E-05-2.12624462E-05 0.00000000E+00 0.00000000E+00
 4 32 0.00000000E+00 0.00000000E+00 0.00000000E+00 0.00000000E+00-4.13026651E-06
 4 33 0.00000000E+00 0.00000000E+00 1.46833849E-05 0.00000000E+00 0.00000000E+00
 4 34-8.50223592E-06 0.00000000E+00 0.00000000E+00 0.00000000E+00 0.00000000E+00
 4 35 3.87069281E-06 0.00000000E+00 0.00000000E+00 0.00000000E+00 0.00000000E+00
 4 36 0.00000000E+00-2.34341837E-05 0.00000000E+00 0.00000000E+00 0.00000000E+00
 4 37-1.63416898E-06 0.00000000E+00 2.88921861E-06 0.00000000E+00 0.00000000E+00
 4 38 0.00000000E+00 0.00000000E+00-6.96750858E-07 0.00000000E+00
 5  1 0.00000000E+00 0.00000000E+00 0.00000000E+00 0.00000000E+00 0.00000000E+00
 5  2 0.00000000E+00 0.00000000E+00 0.00000000E+00 0.00000000E+00 1.00006786E+00
 5  3 0.00000000E+00 0.00000000E+00 1.76407416E-03 0.00000000E+00 0.00000000E+00
 5  4-4.14480746E-02 0.00000000E+00 0.00000000E+00-4.05704400E-02 0.00000000E+00
 5  5 0.00000000E+00 6.35361098E-03 0.00000000E+00 0.00000000E+00-2.70385497E-04
 5  6 0.00000000E+00 0.00000000E+00 0.00000000E+00 0.00000000E+00 0.00000000E+00
 5  7 0.00000000E+00 0.00000000E+00 0.00000000E+00 0.00000000E+00 0.00000000E+00
 5  8 0.00000000E+00 0.00000000E+00 0.00000000E+00 0.00000000E+00 0.00000000E+00
 5  9 0.00000000E+00 0.00000000E+00 0.00000000E+00 0.00000000E+00 0.00000000E+00
 5 10 0.00000000E+00 0.00000000E+00 0.00000000E+00 0.00000000E+00 0.00000000E+00
 5 11 0.00000000E+00-1.30953401E-04 0.00000000E+00 8.78462123E-05 0.00000000E+00
 5 12 8.78462123E-05 0.00000000E+00 0.00000000E+00 0.00000000E+00 0.00000000E+00
 5 13 0.00000000E+00 1.92425972E-05 0.00000000E+00-1.29083266E-05 0.00000000E+00
 5 14-1.29083266E-05 0.00000000E+00 0.00000000E+00 0.00000000E+00 0.00000000E+00
 5 15 0.00000000E+00 0.00000000E+00 0.00000000E+00 1.09636844E-05 0.00000000E+00
 5 16 0.00000000E+00 0.00000000E+00 0.00000000E+00 0.00000000E+00 0.00000000E+00
 5 17 0.00000000E+00 0.00000000E+00-1.47093262E-05 0.00000000E+00 0.00000000E+00
 5 18 0.00000000E+00 0.00000000E+00 0.00000000E+00 0.00000000E+00 0.00000000E+00
 5 19-8.27353599E-06 0.00000000E+00 0.00000000E+00 2.63561554E-05 0.00000000E+00
 5 20 0.00000000E+00-1.18347765E-05 0.00000000E+00 0.00000000E+00 0.00000000E+00
 5 21 0.00000000E+00-4.64907489E-06 8.05243392E-06 0.00000000E+00 0.00000000E+00
 5 22 0.00000000E+00 0.00000000E+00 2.16367996E-05-3.74760362E-05 0.00000000E+00
 5 23 0.00000000E+00-4.94935503E-06 0.00000000E+00 5.63288929E-07 0.00000000E+00
 5 24 6.07696765E-06 0.00000000E+00 0.00000000E+00-5.51367872E-06 0.00000000E+00
 5 25 0.00000000E+00 0.00000000E+00 0.00000000E+00 0.00000000E+00 0.00000000E+00
 5 26-8.27353599E-06 0.00000000E+00 0.00000000E+00 2.63561554E-05 0.00000000E+00
 5 27 0.00000000E+00-1.18347765E-05 0.00000000E+00 0.00000000E+00 0.00000000E+00
 5 28 0.00000000E+00-4.64907489E-06-8.05243392E-06 0.00000000E+00 0.00000000E+00
 5 29 0.00000000E+00 0.00000000E+00 2.16367996E-05 3.74760362E-05 0.00000000E+00
 5 30 0.00000000E+00-4.94935503E-06 0.00000000E+00 5.63288929E-07 0.00000000E+00
 5 31 6.07696765E-06 0.00000000E+00 0.00000000E+00 5.51367872E-06 0.00000000E+00
 5 32 0.00000000E+00 0.00000000E+00 0.00000000E+00 0.00000000E+00 0.00000000E+00
 5 33-8.27353599E-06 0.00000000E+00 0.00000000E+00 2.63561554E-05 0.00000000E+00
 5 34 0.00000000E+00-1.18347765E-05 0.00000000E+00 0.00000000E+00 0.00000000E+00
 5 35 0.00000000E+00 9.29814978E-06 0.00000000E+00 0.00000000E+00 0.00000000E+00
 5 36 0.00000000E+00 0.00000000E+00-4.32735991E-05 0.00000000E+00 0.00000000E+00
 5 37 0.00000000E+00-4.94935503E-06 0.00000000E+00 8.83380701E-06 0.00000000E+00
 5 38-2.19355043E-06 0.00000000E+00 0.00000000E+00 0.00000000E+00
 6  1 0.00000000E+00 0.00000000E+00 0.00000000E+00 0.00000000E+00 0.00000000E+00
 6  2 0.00000000E+00 0.00000000E+00-2.31310454E-05 0.00000000E+00 0.00000000E+00
 6  3-1.38013433E-04 0.00000000E+00 0.00000000E+00 8.46966941E-03 0.00000000E+00
 6  4 0.00000000E+00 8.59894169E-03 0.00000000E+00 0.00000000E+00-6.85466471E-04
 6  5 0.00000000E+00 0.00000000E+00 1.69951098E-04 0.00000000E+00 0.00000000E+00
 6  6 3.85777357E-04-3.85777357E-04 0.00000000E+00 0.00000000E+00 0.00000000E+00
 6  7 0.00000000E+00 6.03472139E-04-6.03472139E-04 0.00000000E+00 0.00000000E+00
 6  8 0.00000000E+00 0.00000000E+00 2.99922807E-04-2.99922807E-04 0.00000000E+00
 6  9 0.00000000E+00 0.00000000E+00 0.00000000E+00-5.20985516E-05 5.20985516E-05
 6 10 0.00000000E+00 0.00000000E+00 0.00000000E+00 0.00000000E+00-3.58724109E-05
 6 11 0.00000000E+00 0.00000000E+00 0.00000000E+00 0.00000000E+00-1.60426299E-05
 6 12 0.00000000E+00 6.41705195E-05 0.00000000E+00 0.00000000E+00 1.37234428E-04
 6 13 0.00000000E+00 0.00000000E+00 0.00000000E+00 0.00000000E+00 6.13731021E-05
 6 14 0.00000000E+00-2.45492408E-04 0.00000000E+00 0.00000000E+00 3.82005559E-05
 6 15 8.82276910E-06 0.00000000E+00 0.00000000E+00 0.00000000E+00 0.00000000E+00
 6 16 0.00000000E+00 0.00000000E+00 0.00000000E+00-4.13010597E-05-2.58028059E-05
 6 17 2.58028059E-05 0.00000000E+00 0.00000000E+00 0.00000000E+00-4.02157994E-01
 6 18-1.26734077E-03-1.19025329E-02-2.29479678E-04-1.04620537E-03 1.80885892E-03
 6 19 0.00000000E+00 4.35623881E-04-7.61785404E-04 0.00000000E+00-2.78664484E-05
 6 20 2.16365600E-04 0.00000000E+00 5.03708612E-07-6.51250409E-05 6.46213323E-05
 6 21 1.01215832E-04 0.00000000E+00 0.00000000E+00 2.55378445E-05 3.19070201E-05
 6 22-5.74448646E-05-1.22771697E-04 0.00000000E+00 0.00000000E+00-3.24127980E-06
 6 23 5.99112036E-06 0.00000000E+00-9.32405998E-06 0.00000000E+00 7.54598348E-06
 6 24 0.00000000E+00-3.19735031E-06 1.28612855E-06 0.00000000E+00-4.02157994E-01
 6 25-1.26734077E-03-1.19025329E-02-2.29479678E-04-1.04620537E-03-1.80885892E-03
 6 26 0.00000000E+00 4.35623881E-04 7.61785404E-04 0.00000000E+00-2.78664484E-05
 6 27-2.16365600E-04 0.00000000E+00 5.03708612E-07-6.51250409E-05 6.46213323E-05
 6 28-1.01215832E-04 0.00000000E+00 0.00000000E+00 2.55378445E-05 3.19070201E-05
 6 29-5.74448646E-05 1.22771697E-04 0.00000000E+00 0.00000000E+00-3.24127980E-06
 6 30-5.99112036E-06 0.00000000E+00 9.32405998E-06 0.00000000E+00 7.54598348E-06
 6 31 0.00000000E+00-3.19735031E-06-1.28612855E-06 0.00000000E+00 8.04315987E-01
 6 32 2.53468153E-03 2.38050658E-02 4.58959356E-04-4.17924092E-03 0.00000000E+00
 6 33 0.00000000E+00 1.75507490E-03 0.00000000E+00 0.00000000E+00-4.02622660E-04
 6 34 0.00000000E+00 0.00000000E+00 2.49259455E-04-1.20016790E-04-1.29242665E-04
 6 35 0.00000000E+00 0.00000000E+00 0.00000000E+00-2.44786998E-04 1.29897269E-04
 6 36 1.14889729E-04 0.00000000E+00 0.00000000E+00 0.00000000E+00 1.30899677E-05
 6 37 0.00000000E+00 0.00000000E+00 0.00000000E+00 0.00000000E+00-1.21370442E-05
 6 38 0.00000000E+00-5.42499030E-06 0.00000000E+00 0.00000000E+00
 7  1 0.00000000E+00 0.00000000E+00 0.00000000E+00 0.00000000E+00 0.00000000E+00
 7  2 0.00000000E+00 0.00000000E+00 0.00000000E+00 2.31310454E-05 0.00000000E+00
 7  3 0.00000000E+00 1.38013433E-04 0.00000000E+00 0.00000000E+00-8.46966941E-03
 7  4 0.00000000E+00 0.00000000E+00-8.59894169E-03 0.00000000E+00 0.00000000E+00
 7  5 6.85466471E-04 0.00000000E+00 0.00000000E+00-1.69951098E-04 0.00000000E+00
 7  6 0.00000000E+00 0.00000000E+00 0.00000000E+00 4.45457322E-04 0.00000000E+00
 7  7 0.00000000E+00 0.00000000E+00 0.00000000E+00 0.00000000E+00 6.96829604E-04
 7  8 0.00000000E+00 0.00000000E+00 0.00000000E+00 0.00000000E+00 0.00000000E+00
 7  9 3.46321027E-04 0.00000000E+00 0.00000000E+00 0.00000000E+00 0.00000000E+00
 7 10 0.00000000E+00-6.01582255E-05 0.00000000E+00 0.00000000E+00 0.00000000E+00
 7 11 3.58724109E-05 0.00000000E+00 1.60426299E-05 0.00000000E+00 0.00000000E+00
 7 12 0.00000000E+00 0.00000000E+00-6.41705195E-05 0.00000000E+00 0.00000000E+00
 7 13-1.37234428E-04 0.00000000E+00-6.13731021E-05 0.00000000E+00 0.00000000E+00
 7 14 0.00000000E+00 0.00000000E+00 2.45492408E-04 0.00000000E+00 0.00000000E+00
 7 15 0.00000000E+00 0.00000000E+00-2.44425328E-05 0.00000000E+00 4.66500523E-05
 7 16 0.00000000E+00 0.00000000E+00 0.00000000E+00 0.00000000E+00 0.00000000E+00
 7 17 0.00000000E+00 0.00000000E+00 0.00000000E+00-2.97945138E-05-6.96558078E-01
 7 18-2.19509860E-03-2.06157917E-02-3.97470462E-04-1.80885892E-03 3.13489574E-03
 7 19 0.00000000E+00 7.61785404E-04-1.31525790E-03 0.00000000E+00-2.16365600E-04
 7 20 2.77703923E-04 0.00000000E+00 3.16917662E-05-1.43619197E-04 1.11927431E-04
 7 21 1.54764752E-04 0.00000000E+00 0.00000000E+00-5.65746963E-05 1.56072121E-04
 7 22-9.94974242E-05-1.45441790E-04 0.00000000E+00 0.00000000E+00-7.99091470E-06
 7 23-6.49163672E-06 0.00000000E+00 4.02700097E-06 0.00000000E+00 1.20070656E-05
 7 24 0.00000000E+00-1.28612855E-06 4.68244363E-06 0.00000000E+00 6.96558078E-01
 7 25 2.19509860E-03 2.06157917E-02 3.97470462E-04 1.80885892E-03 3.13489574E-03
 7 26 0.00000000E+00-7.61785404E-04-1.31525790E-03 0.00000000E+00 2.16365600E-04
 7 27 2.77703923E-04 0.00000000E+00-3.16917662E-05 1.43619197E-04-1.11927431E-04
 7 28 1.54764752E-04 0.00000000E+00 0.00000000E+00 5.65746963E-05-1.56072121E-04
 7 29 9.94974242E-05-1.45441790E-04 0.00000000E+00 0.00000000E+00 7.99091470E-06
 7 30-6.49163672E-06 0.00000000E+00 4.02700097E-06 0.00000000E+00-1.20070656E-05
 7 31 0.00000000E+00 1.28612855E-06 4.68244363E-06 0.00000000E+00 0.00000000E+00
 7 32 0.00000000E+00 0.00000000E+00 0.00000000E+00 0.00000000E+00 1.86018298E-06
 7 33 0.00000000E+00 0.00000000E+00 4.19312747E-06 0.00000000E+00 0.00000000E+00
 7 34-9.70522888E-05 0.00000000E+00 0.00000000E+00 0.00000000E+00 0.00000000E+00
 7 35-2.05462115E-05 0.00000000E+00 0.00000000E+00 0.00000000E+00 0.00000000E+00
 7 36 0.00000000E+00 6.72050271E-05 0.00000000E+00 0.00000000E+00 0.00000000E+00
 7 37 6.37586536E-06 0.00000000E+00-1.10089247E-05 0.00000000E+00 0.00000000E+00
 7 38 0.00000000E+00 0.00000000E+00 2.45480364E-06 0.00000000E+00
 8  1-4.74455119E-05-1.37749514E-04-6.21372783E-04-1.42030747E-03 5.82357989E-04
 8  2-4.39263970E-04 3.86349031E-04 0.00000000E+00 0.00000000E+00 0.00000000E+00
 8  3 0.00000000E+00 0.00000000E+00 0.00000000E+00 0.00000000E+00 0.00000000E+00
 8  4 0.00000000E+00 0.00000000E+00 0.00000000E+00 0.00000000E+00 0.00000000E+00
 8  5 0.00000000E+00 0.00000000E+00 0.00000000E+00 0.00000000E+00 0.00000000E+00
 8  6 9.40011741E-05 9.40011741E-05-1.88002348E-04 0.00000000E+00 0.00000000E+00
 8  7 0.00000000E+00 1.49315630E-04 1.49315630E-04-2.98631260E-04 0.00000000E+00
 8  8 0.00000000E+00 0.00000000E+00 6.79435371E-05 6.79435371E-05-1.35887074E-04
 8  9 0.00000000E+00 0.00000000E+00 0.00000000E+00-6.84183011E-05-6.84183011E-05
 8 10 1.36836602E-04 0.00000000E+00 0.00000000E+00 0.00000000E+00-6.96392886E-05
 8 11 0.00000000E+00 0.00000000E+00 0.00000000E+00 0.00000000E+00 9.34309099E-05
 8 12 0.00000000E+00 0.00000000E+00 0.00000000E+00 0.00000000E+00 2.60594834E-04
 8 13 0.00000000E+00 0.00000000E+00 0.00000000E+00 0.00000000E+00-3.49624657E-04
 8 14 0.00000000E+00 0.00000000E+00 0.00000000E+00 0.00000000E+00 7.98348623E-06
 8 15 7.98348623E-06 2.12892966E-05 0.00000000E+00 0.00000000E+00 0.00000000E+00
 8 16 0.00000000E+00 0.00000000E+00 0.00000000E+00 4.67465088E-06-1.86986035E-05
 8 17-1.86986035E-05 0.00000000E+00 0.00000000E+00 0.00000000E+00 5.68671600E-01
 8 18 1.67931601E-03 1.68479644E-02 6.27581847E-04 1.47091398E-03-2.54769774E-03
 8 19 0.00000000E+00-5.97611210E-04 1.03509298E-03 0.00000000E+00 2.21611579E-04
 8 20-3.83842515E-04 0.00000000E+00-1.63090858E-05 1.03060236E-04-8.67511505E-05
 8 21-1.19369322E-04 0.00000000E+00 0.00000000E+00 1.26947192E-05-6.84502077E-05
 8 22 5.57554885E-05 8.11449269E-05 0.00000000E+00 0.00000000E+00 3.85533160E-06
 8 23 3.55041272E-06 0.00000000E+00 1.58779284E-06 0.00000000E+00-8.83932061E-06
 8 24 0.00000000E+00 3.66685049E-06-6.35117135E-06 0.00000000E+00 5.68671600E-01
 8 25 1.67931601E-03 1.68479644E-02 6.27581847E-04 1.47091398E-03 2.54769774E-03
 8 26 0.00000000E+00-5.97611210E-04-1.03509298E-03 0.00000000E+00 2.21611579E-04
 8 27 3.83842515E-04 0.00000000E+00-1.63090858E-05 1.03060236E-04-8.67511505E-05
 8 28 1.19369322E-04 0.00000000E+00 0.00000000E+00 1.26947192E-05-6.84502077E-05
 8 29 5.57554885E-05-8.11449269E-05 0.00000000E+00 0.00000000E+00 3.85533160E-06
 8 30-3.55041272E-06 0.00000000E+00-1.58779284E-06 0.00000000E+00-8.83932061E-06
 8 31 0.00000000E+00 3.66685049E-06 6.35117135E-06 0.00000000E+00 5.68671600E-01
 8 32 1.67931601E-03 1.68479644E-02 6.27581847E-04-2.94182795E-03 0.00000000E+00
 8 33 0.00000000E+00 1.19522242E-03 0.00000000E+00 0.00000000E+00-4.43223159E-04
 8 34 0.00000000E+00 0.00000000E+00 1.62744897E-04-7.59937468E-05-8.67511505E-05
 8 35 0.00000000E+00 0.00000000E+00 0.00000000E+00-1.09022671E-04 5.32671826E-05
 8 36 5.57554885E-05 0.00000000E+00 0.00000000E+00 0.00000000E+00 1.00048268E-05
 8 37 0.00000000E+00 0.00000000E+00 0.00000000E+00 0.00000000E+00-6.08918275E-06
 8 38 0.00000000E+00-7.33370098E-06 0.00000000E+00 0.00000000E+00
 9  1-5.14838899E-03-1.62377579E-02 9.05616480E-01-3.26101716E-01 6.36138805E-02
 9  2-2.63690204E-01 6.09643172E-03 0.00000000E+00 0.00000000E+00 0.00000000E+00
 9  3 0.00000000E+00 0.00000000E+00 0.00000000E+00 0.00000000E+00 0.00000000E+00
 9  4 0.00000000E+00 0.00000000E+00 0.00000000E+00 0.00000000E+00 0.00000000E+00
 9  5 0.00000000E+00 0.00000000E+00 0.00000000E+00 0.00000000E+00 0.00000000E+00
 9  6 9.22529266E-03 9.22529266E-03-1.84505853E-02 0.00000000E+00 0.00000000E+00
 9  7 0.00000000E+00-1.72104187E-03-1.72104187E-03 3.44208375E-03 0.00000000E+00
 9  8 0.00000000E+00 0.00000000E+00-1.85631327E-03-1.85631327E-03 3.71262654E-03
 9  9 0.00000000E+00 0.00000000E+00 0.00000000E+00 4.62080752E-05 4.62080752E-05
 9 10-9.24161505E-05 0.00000000E+00 0.00000000E+00 0.00000000E+00 1.00430428E-03
 9 11 0.00000000E+00 0.00000000E+00 0.00000000E+00 0.00000000E+00-1.34741558E-03
 9 12 0.00000000E+00 0.00000000E+00 0.00000000E+00 0.00000000E+00 4.42532017E-03
 9 13 0.00000000E+00 0.00000000E+00 0.00000000E+00 0.00000000E+00-5.93719004E-03
 9 14 0.00000000E+00 0.00000000E+00 0.00000000E+00 0.00000000E+00 2.09429542E-04
 9 15 2.09429542E-04 5.58478778E-04 0.00000000E+00 0.00000000E+00 0.00000000E+00
 9 16 0.00000000E+00 0.00000000E+00 0.00000000E+00 1.22629383E-04-4.90517532E-04
 9 17-4.90517532E-04 0.00000000E+00 0.00000000E+00 0.00000000E+00 3.25650601E-04
 9 18 8.32021911E-04 1.60792666E-04-2.87344277E-03 1.21910955E-04-2.11155969E-04
 9 19 0.00000000E+00-1.06655184E-04 1.84732197E-04 0.00000000E+00-1.30443887E-03
 9 20 2.25935440E-03 0.00000000E+00-7.76184977E-06 6.99441280E-05-6.21822782E-05
 9 21-7.77059777E-05 0.00000000E+00 0.00000000E+00 3.85323079E-05-3.18486277E-04
 9 22 2.79953970E-04 3.57018585E-04 0.00000000E+00 0.00000000E+00-3.32021989E-05
 9 23-1.89995925E-05 0.00000000E+00-8.49687607E-06 0.00000000E+00 6.41681190E-05
 9 24 0.00000000E+00-1.96226947E-05 3.39875043E-05 0.00000000E+00 3.25650601E-04
 9 25 8.32021911E-04 1.60792666E-04-2.87344277E-03 1.21910955E-04 2.11155969E-04
 9 26 0.00000000E+00-1.06655184E-04-1.84732197E-04 0.00000000E+00-1.30443887E-03
 9 27-2.25935440E-03 0.00000000E+00-7.76184977E-06 6.99441280E-05-6.21822782E-05
 9 28 7.77059777E-05 0.00000000E+00 0.00000000E+00 3.85323079E-05-3.18486277E-04
 9 29 2.79953970E-04-3.57018585E-04 0.00000000E+00 0.00000000E+00-3.32021989E-05
 9 30 1.89995925E-05 0.00000000E+00 8.49687607E-06 0.00000000E+00 6.41681190E-05
 9 31 0.00000000E+00-1.96226947E-05-3.39875043E-05 0.00000000E+00 3.25650601E-04
 9 32 8.32021911E-04 1.60792666E-04-2.87344277E-03-2.43821911E-04 0.00000000E+00
 9 33 0.00000000E+00 2.13310367E-04 0.00000000E+00 0.00000000E+00 2.60887775E-03
 9 34 0.00000000E+00 0.00000000E+00 1.08797117E-04-4.66148386E-05-6.21822782E-05
 9 35 0.00000000E+00 0.00000000E+00 0.00000000E+00-4.96995570E-04 2.17041601E-04
 9 36 2.79953970E-04 0.00000000E+00 0.00000000E+00 0.00000000E+00-6.61104584E-05
 9 37 0.00000000E+00 0.00000000E+00 0.00000000E+00 0.00000000E+00 4.94510979E-05
 9 38 0.00000000E+00 3.92453895E-05 0.00000000E+00 0.00000000E+00
10  1 0.00000000E+00 0.00000000E+00 0.00000000E+00 0.00000000E+00 0.00000000E+00
10  2 0.00000000E+00 0.00000000E+00-3.45916911E-03 0.00000000E+00 0.00000000E+00
10  3 9.59627852E-01 0.00000000E+00 0.00000000E+00 1.53880838E+00 0.00000000E+00
10  4 0.00000000E+00 1.45432901E+00 0.00000000E+00 0.00000000E+00-2.99370135E-01
10  5 0.00000000E+00 0.00000000E+00 2.38163085E-03 0.00000000E+00 0.00000000E+00
10  6 1.32396706E-02-1.32396706E-02 0.00000000E+00 0.00000000E+00 0.00000000E+00
10  7 0.00000000E+00 2.56156279E-03-2.56156279E-03 0.00000000E+00 0.00000000E+00