 !Step 2: single point gmcpt calculation averaging 10 states
 !        for FeF4- at optimized geometry. The UHF orbitals at
 !        the MP2 optimized structure is taken as the initial
 !        guess of orbitals in the $VEC group. 
 $system kdiag=3 mwords=100 memddi=1000 parall=.t. $end
 $contrl runtyp=energy ispher=1 $end
 $contrl icut=9 itol=20 inttyp=rysquad qmttol=1.0d-05 nosym=0 $end
 $scf    npunch=2 conv=1.0d-06 dirscf=.t. diis=.t. soscf=.f. ethrsh=10.0 $end
 $contrl scftyp=rohf  mult=15 maxit=200 icharg=10 $end
 $guess  guess=moread norb=158 purify=.t. $end
 $basis  gbasis=cct $end
 $mcscf  cistep=gmcci fullnr=.t. finci=mos
         acurcy=1.d-6 maxit=100 $end
 $trans  dirtrf=.t. $end
 $mrmp   mrpt=gmcpt rdvecs=.f. $end
 $gmcpt  nmofzc=27 nmodoc=0 nmoact=5 nelact=5 stsym(1)=A nsolut=100
         reftyp=ormas nspace=1 mstart(1)=28 mine(1)=5 maxe(1)=5
         kstate(1)=1
         wstate(1)=1
         iwgt=0 thrwgt=-1.0 krot=.f. kszdoe=.f. knospn=.f.
         thrde=-1.0 edshft=0.02 $end
 $statpt hssend=.t. $end
 $data
 FeH4- 10 states calculation at opt geometry.
 dnh 3

 Co     27.0   0.0  0.0  0.0
 F       9.0   1.715  0.0  0.0
 $end
--- CLOSED SHELL ORBITALS --- GENERATED AT Mon Mar 13 12:23:16 2023
 FeH4- 10 states calculation at opt geometry.                                   
E(RHF)=    -1565.3359226238, E(NUC)=  268.2284123203,   17 ITERS
 $VEC   
 1  1 9.82379449E-01-1.86909993E-01-3.79449254E-04 2.63784079E-04-1.28615708E-04
 1  2 1.80063345E-04-1.80387170E-05 0.00000000E+00 0.00000000E+00 0.00000000E+00
 1  3 0.00000000E+00 0.00000000E+00 0.00000000E+00 0.00000000E+00 0.00000000E+00
 1  4 0.00000000E+00 0.00000000E+00 0.00000000E+00 0.00000000E+00 0.00000000E+00
 1  5 0.00000000E+00 0.00000000E+00 0.00000000E+00 0.00000000E+00 0.00000000E+00
 1  6-5.61787607E-06-5.61787607E-06 1.12357521E-05 0.00000000E+00 0.00000000E+00
 1  7 0.00000000E+00-7.34689180E-06-7.34689180E-06 1.46937836E-05 0.00000000E+00
 1  8 0.00000000E+00 0.00000000E+00-6.10693685E-06-6.10693685E-06 1.22138737E-05
 1  9 0.00000000E+00 0.00000000E+00 0.00000000E+00 1.29354484E-06 1.29354484E-06
 1 10-2.58708968E-06 0.00000000E+00 0.00000000E+00 0.00000000E+00 2.68022779E-06
 1 11 0.00000000E+00 0.00000000E+00 0.00000000E+00 0.00000000E+00-3.59590293E-06
 1 12 0.00000000E+00 0.00000000E+00 0.00000000E+00 0.00000000E+00-3.63271336E-06
 1 13 0.00000000E+00 0.00000000E+00 0.00000000E+00 0.00000000E+00 4.87379641E-06
 1 14 0.00000000E+00 0.00000000E+00 0.00000000E+00 0.00000000E+00-1.87163247E-08
 1 15-1.87163247E-08-4.99101991E-08 0.00000000E+00 0.00000000E+00 0.00000000E+00
 1 16 0.00000000E+00 0.00000000E+00 0.00000000E+00-1.09591576E-08 4.38366303E-08
 1 17 4.38366303E-08 0.00000000E+00 0.00000000E+00 0.00000000E+00-1.24658398E-06
 1 18-2.28576375E-06-3.18789732E-07 8.99451983E-06-3.31520409E-07 5.74210193E-07
 1 19 0.00000000E+00 7.92815161E-07-1.37319614E-06 0.00000000E+00 4.40513506E-06
 1 20-7.62991774E-06 0.00000000E+00 2.68965656E-08-5.26980044E-07 5.00083479E-07
 1 21 5.53876610E-07 0.00000000E+00 0.00000000E+00-2.30155702E-07 2.21658408E-06
 1 22-1.98642837E-06-2.44673978E-06 0.00000000E+00 0.00000000E+00-5.10725471E-08
 1 23-1.64483796E-07 0.00000000E+00-7.35593900E-08 0.00000000E+00 2.38399147E-07
 1 24 0.00000000E+00-1.69878134E-07 2.94237560E-07 0.00000000E+00-1.24658398E-06
 1 25-2.28576375E-06-3.18789732E-07 8.99451983E-06-3.31520409E-07-5.74210193E-07
 1 26 0.00000000E+00 7.92815161E-07 1.37319614E-06 0.00000000E+00 4.40513506E-06
 1 27 7.62991774E-06 0.00000000E+00 2.68965656E-08-5.26980044E-07 5.00083479E-07
 1 28-5.53876610E-07 0.00000000E+00 0.00000000E+00-2.30155702E-07 2.21658408E-06
 1 29-1.98642837E-06 2.44673978E-06 0.00000000E+00 0.00000000E+00-5.10725471E-08
 1 30 1.64483796E-07 0.00000000E+00 7.35593900E-08 0.00000000E+00 2.38399147E-07
 1 31 0.00000000E+00-1.69878134E-07-2.94237560E-07 0.00000000E+00-1.24658398E-06
 1 32-2.28576375E-06-3.18789732E-07 8.99451983E-06 6.63040818E-07 0.00000000E+00
 1 33 0.00000000E+00-1.58563032E-06 0.00000000E+00 0.00000000E+00-8.81027013E-06
 1 34 0.00000000E+00 0.00000000E+00-8.03918349E-07 3.03834870E-07 5.00083479E-07
 1 35 0.00000000E+00 0.00000000E+00 0.00000000E+00 3.43995397E-06-1.45352559E-06
 1 36-1.98642837E-06 0.00000000E+00 0.00000000E+00 0.00000000E+00-3.35966839E-07
 1 37 0.00000000E+00 0.00000000E+00 0.00000000E+00 0.00000000E+00 1.10990546E-07
 1 38 0.00000000E+00 3.39756269E-07 0.00000000E+00 0.00000000E+00
 2  1 1.86986707E-01 9.82556334E-01 3.06069197E-03 3.37603426E-03-1.65185196E-03
 2  2 2.64340020E-03-3.51195452E-04 0.00000000E+00 0.00000000E+00 0.00000000E+00
 2  3 0.00000000E+00 0.00000000E+00 0.00000000E+00 0.00000000E+00 0.00000000E+00
 2  4 0.00000000E+00 0.00000000E+00 0.00000000E+00 0.00000000E+00 0.00000000E+00
 2  5 0.00000000E+00 0.00000000E+00 0.00000000E+00 0.00000000E+00 0.00000000E+00
 2  6-4.43116578E-04-4.43116578E-04 8.86233157E-04 0.00000000E+00 0.00000000E+00
 2  7 0.00000000E+00-3.04420353E-04-3.04420353E-04 6.08840706E-04 0.00000000E+00
 2  8 0.00000000E+00 0.00000000E+00-5.97702593E-04-5.97702593E-04 1.19540519E-03
 2  9 0.00000000E+00 0.00000000E+00 0.00000000E+00 7.84458107E-05 7.84458107E-05
 2 10-1.56891621E-04 0.00000000E+00 0.00000000E+00 0.00000000E+00 1.06251583E-06
 2 11 0.00000000E+00 0.00000000E+00 0.00000000E+00 0.00000000E+00-1.42551458E-06
 2 12 0.00000000E+00 0.00000000E+00 0.00000000E+00 0.00000000E+00-4.75082515E-05
 2 13 0.00000000E+00 0.00000000E+00 0.00000000E+00 0.00000000E+00 6.37390079E-05
 2 14 0.00000000E+00 0.00000000E+00 0.00000000E+00 0.00000000E+00 2.11366561E-05
 2 15 2.11366561E-05 5.63644161E-05 0.00000000E+00 0.00000000E+00 0.00000000E+00
 2 16 0.00000000E+00 0.00000000E+00 0.00000000E+00 1.23763585E-05-4.95054340E-05
 2 17-4.95054340E-05 0.00000000E+00 0.00000000E+00 0.00000000E+00-6.56173217E-06
 2 18-6.80413465E-06-4.26434326E-06 1.95451695E-04 1.61133558E-06-2.79091510E-06
 2 19 0.00000000E+00 1.75572928E-05-3.04101231E-05 0.00000000E+00 1.02838774E-04
 2 20-1.78121982E-04 0.00000000E+00-4.22649875E-06 5.05255493E-06-8.26056183E-07
 2 21-9.27905368E-06 0.00000000E+00 0.00000000E+00 6.73481278E-06 1.34254747E-05
 2 22-2.01602875E-05-6.69066190E-06 0.00000000E+00 0.00000000E+00 1.19545364E-05
 2 23 3.05825570E-06 0.00000000E+00 1.36769353E-06 0.00000000E+00-1.91972465E-05
 2 24 0.00000000E+00 3.15855290E-06-5.47077411E-06 0.00000000E+00-6.56173217E-06
 2 25-6.80413465E-06-4.26434326E-06 1.95451695E-04 1.61133558E-06 2.79091510E-06
 2 26 0.00000000E+00 1.75572928E-05 3.04101231E-05 0.00000000E+00 1.02838774E-04
 2 27 1.78121982E-04 0.00000000E+00-4.22649875E-06 5.05255493E-06-8.26056183E-07
 2 28 9.27905368E-06 0.00000000E+00 0.00000000E+00 6.73481278E-06 1.34254747E-05
 2 29-2.01602875E-05 6.69066190E-06 0.00000000E+00 0.00000000E+00 1.19545364E-05
 2 30-3.05825570E-06 0.00000000E+00-1.36769353E-06 0.00000000E+00-1.91972465E-05
 2 31 0.00000000E+00 3.15855290E-06 5.47077411E-06 0.00000000E+00-6.56173217E-06
 2 32-6.80413465E-06-4.26434326E-06 1.95451695E-04-3.22267117E-06 0.00000000E+00
 2 33 0.00000000E+00-3.51145856E-05 0.00000000E+00 0.00000000E+00-2.05677549E-04
 2 34 0.00000000E+00 0.00000000E+00 9.69208177E-06-8.86602558E-06-8.26056183E-07
 2 35 0.00000000E+00 0.00000000E+00 0.00000000E+00 1.67708056E-05 3.38948182E-06
 2 36-2.01602875E-05 0.00000000E+00 0.00000000E+00 0.00000000E+00 1.72515907E-05
 2 37 0.00000000E+00 0.00000000E+00 0.00000000E+00 0.00000000E+00-1.68283319E-05
 2 38 0.00000000E+00-6.31710581E-06 0.00000000E+00 0.00000000E+00
 3  1 0.00000000E+00 0.00000000E+00 0.00000000E+00 0.00000000E+00 0.00000000E+00
 3  2 0.00000000E+00 0.00000000E+00 0.00000000E+00 0.00000000E+00 1.00002707E+00
 3  3 0.00000000E+00 0.00000000E+00 3.59894912E-03 0.00000000E+00 0.00000000E+00
 3  4-1.92488984E-02 0.00000000E+00 0.00000000E+00-1.87661024E-02 0.00000000E+00
 3  5 0.00000000E+00 3.04508718E-03 0.00000000E+00 0.00000000E+00-1.13138643E-04
 3  6 0.00000000E+00 0.00000000E+00 0.00000000E+00 0.00000000E+00 0.00000000E+00
 3  7 0.00000000E+00 0.00000000E+00 0.00000000E+00 0.00000000E+00 0.00000000E+00
 3  8 0.00000000E+00 0.00000000E+00 0.00000000E+00 0.00000000E+00 0.00000000E+00
 3  9 0.00000000E+00 0.00000000E+00 0.00000000E+00 0.00000000E+00 0.00000000E+00
 3 10 0.00000000E+00 0.00000000E+00 0.00000000E+00 0.00000000E+00 0.00000000E+00
 3 11 0.00000000E+00 3.96990859E-04 0.00000000E+00-2.66309564E-04 0.00000000E+00
 3 12-2.66309564E-04 0.00000000E+00 0.00000000E+00 0.00000000E+00 0.00000000E+00
 3 13 0.00000000E+00-8.40686230E-05 0.00000000E+00 5.63949467E-05 0.00000000E+00
 3 14 5.63949467E-05 0.00000000E+00 0.00000000E+00 0.00000000E+00 0.00000000E+00
 3 15 0.00000000E+00 0.00000000E+00 0.00000000E+00 1.96123319E-06 0.00000000E+00
 3 16 0.00000000E+00 0.00000000E+00 0.00000000E+00 0.00000000E+00 0.00000000E+00
 3 17 0.00000000E+00 0.00000000E+00-2.63127044E-06 0.00000000E+00 0.00000000E+00
 3 18 0.00000000E+00 0.00000000E+00 0.00000000E+00 0.00000000E+00 0.00000000E+00
 3 19-3.39604053E-06 0.00000000E+00 0.00000000E+00 8.07867517E-06 0.00000000E+00
 3 20 0.00000000E+00-1.32698811E-05 0.00000000E+00 0.00000000E+00 0.00000000E+00
 3 21 0.00000000E+00-3.72936457E-07 6.45944892E-07 0.00000000E+00 0.00000000E+00
 3 22 0.00000000E+00 0.00000000E+00 2.61082909E-06-4.52208864E-06 0.00000000E+00
 3 23 0.00000000E+00 6.89120008E-07 0.00000000E+00-1.17554390E-07 0.00000000E+00
 3 24-8.06997119E-07 0.00000000E+00 0.00000000E+00 6.89442728E-07 0.00000000E+00
 3 25 0.00000000E+00 0.00000000E+00 0.00000000E+00 0.00000000E+00 0.00000000E+00
 3 26-3.39604053E-06 0.00000000E+00 0.00000000E+00 8.07867517E-06 0.00000000E+00
 3 27 0.00000000E+00-1.32698811E-05 0.00000000E+00 0.00000000E+00 0.00000000E+00
 3 28 0.00000000E+00-3.72936457E-07-6.45944892E-07 0.00000000E+00 0.00000000E+00
 3 29 0.00000000E+00 0.00000000E+00 2.61082909E-06 4.52208864E-06 0.00000000E+00
 3 30 0.00000000E+00 6.89120008E-07 0.00000000E+00-1.17554390E-07 0.00000000E+00
 3 31-8.06997119E-07 0.00000000E+00 0.00000000E+00-6.89442728E-07 0.00000000E+00
 3 32 0.00000000E+00 0.00000000E+00 0.00000000E+00 0.00000000E+00 0.00000000E+00
 3 33-3.39604053E-06 0.00000000E+00 0.00000000E+00 8.07867517E-06 0.00000000E+00
 3 34 0.00000000E+00-1.32698811E-05 0.00000000E+00 0.00000000E+00 0.00000000E+00
 3 35 0.00000000E+00 7.45872914E-07 0.00000000E+00 0.00000000E+00 0.00000000E+00
 3 36 0.00000000E+00 0.00000000E+00-5.22165819E-06 0.00000000E+00 0.00000000E+00
 3 37 0.00000000E+00 6.89120008E-07 0.00000000E+00-1.15171848E-06 0.00000000E+00
 3 38 2.27166974E-07 0.00000000E+00 0.00000000E+00 0.00000000E+00
 4  1 0.00000000E+00 0.00000000E+00 0.00000000E+00 0.00000000E+00 0.00000000E+00
 4  2 0.00000000E+00 0.00000000E+00 1.00002504E+00 0.00000000E+00 0.00000000E+00
 4  3 4.47825120E-03 0.00000000E+00 0.00000000E+00-2.02953501E-02 0.00000000E+00
 4  4 0.00000000E+00-1.99475681E-02 0.00000000E+00 0.00000000E+00 3.07462652E-03
 4  5 0.00000000E+00 0.00000000E+00-1.07463293E-04 0.00000000E+00 0.00000000E+00
 4  6 6.66421814E-05-6.66421814E-05 0.00000000E+00 0.00000000E+00 0.00000000E+00
 4  7 0.00000000E+00 1.63717426E-05-1.63717426E-05 0.00000000E+00 0.00000000E+00
 4  8 0.00000000E+00 0.00000000E+00 6.78466150E-05-6.78466150E-05 0.00000000E+00
 4  9 0.00000000E+00 0.00000000E+00 0.00000000E+00-1.87291125E-06 1.87291125E-06
 4 10 0.00000000E+00 0.00000000E+00 0.00000000E+00 0.00000000E+00 2.42483314E-05
 4 11 0.00000000E+00 0.00000000E+00 0.00000000E+00 0.00000000E+00 1.08441835E-05
 4 12 0.00000000E+00-4.33767338E-05 0.00000000E+00 0.00000000E+00 5.74568954E-05
 4 13 0.00000000E+00 0.00000000E+00 0.00000000E+00 0.00000000E+00 2.56955048E-05
 4 14 0.00000000E+00-1.02782019E-04 0.00000000E+00 0.00000000E+00 1.75600386E-05
 4 15 3.59508461E-06 0.00000000E+00 0.00000000E+00 0.00000000E+00 0.00000000E+00
 4 16 0.00000000E+00 0.00000000E+00 0.00000000E+00-1.85807577E-05-1.22655597E-05
 4 17 1.22655597E-05 0.00000000E+00 0.00000000E+00 0.00000000E+00-2.39085602E-05
 4 18-6.35030395E-05-7.99020618E-06 7.26670263E-06-1.00699110E-05 1.02152142E-05
 4 19 0.00000000E+00-1.83001090E-05 3.81720345E-05 0.00000000E+00-9.57379674E-06
 4 20 1.77603714E-05 0.00000000E+00-3.01013429E-06-2.73402823E-06 5.74416252E-06
 4 21 1.09883989E-05 0.00000000E+00 0.00000000E+00 1.24901909E-05-1.30304626E-05
 4 22 5.40271772E-07-6.35698124E-06 0.00000000E+00 0.00000000E+00-2.93574192E-06
 4 23-1.81043095E-06 0.00000000E+00-1.75803665E-06 0.00000000E+00 6.48148147E-06
 4 24 0.00000000E+00-2.54277038E-06 4.18698466E-06 0.00000000E+00-2.39085602E-05
 4 25-6.35030395E-05-7.99020618E-06 7.26670263E-06-1.00699110E-05-1.02152142E-05
 4 26 0.00000000E+00-1.83001090E-05-3.81720345E-05 0.00000000E+00-9.57379674E-06
 4 27-1.77603714E-05 0.00000000E+00-3.01013429E-06-2.73402823E-06 5.74416252E-06
 4 28-1.09883989E-05 0.00000000E+00 0.00000000E+00 1.24901909E-05-1.30304626E-05
 4 29 5.40271772E-07 6.35698124E-06 0.00000000E+00 0.00000000E+00-2.93574192E-06
 4 30 1.81043095E-06 0.00000000E+00 1.75803665E-06 0.00000000E+00 6.48148147E-06
 4 31 0.00000000E+00-2.54277038E-06-4.18698466E-06 0.00000000E+00 4.78171204E-05
 4 32 1.27006079E-04 1.59804124E-05-1.45334053E-05-2.77631810E-05 0.00000000E+00
 4 33 0.00000000E+00-8.44160122E-05 0.00000000E+00 0.00000000E+00-4.03356624E-05
 4 34 0.00000000E+00 0.00000000E+00 2.20887078E-05-1.06003827E-05-1.14883250E-05
 4 35 0.00000000E+00 0.00000000E+00 0.00000000E+00 3.76512667E-06-2.68458313E-06
 4 36-1.08054354E-06 0.00000000E+00 0.00000000E+00 0.00000000E+00 1.41898698E-05
 4 37 0.00000000E+00 0.00000000E+00 0.00000000E+00 0.00000000E+00-9.24286762E-06
 4 38 0.00000000E+00-9.79484053E-06 0.00000000E+00 0.00000000E+00
 5  1 0.00000000E+00 0.00000000E+00 0.00000000E+00 0.00000000E+00 0.00000000E+00
 5  2 0.00000000E+00 0.00000000E+00 0.00000000E+00 1.00002504E+00 0.00000000E+00
 5  3 0.00000000E+00 4.47825120E-03 0.00000000E+00 0.00000000E+00-2.02953501E-02
 5  4 0.00000000E+00 0.00000000E+00-1.99475681E-02 0.00000000E+00 0.00000000E+00
 5  5 3.07462652E-03 0.00000000E+00 0.00000000E+00-1.07463293E-04 0.00000000E+00
 5  6 0.00000000E+00 0.00000000E+00 0.00000000E+00-7.69517628E-05 0.00000000E+00
 5  7 0.00000000E+00 0.00000000E+00 0.00000000E+00 0.00000000E+00-1.89044600E-05
 5  8 0.00000000E+00 0.00000000E+00 0.00000000E+00 0.00000000E+00 0.00000000E+00
 5  9-7.83425228E-05 0.00000000E+00 0.00000000E+00 0.00000000E+00 0.00000000E+00
 5 10 0.00000000E+00 2.16265163E-06 0.00000000E+00 0.00000000E+00 0.00000000E+00
 5 11 2.42483314E-05 0.00000000E+00 1.08441835E-05 0.00000000E+00 0.00000000E+00
 5 12 0.00000000E+00 0.00000000E+00-4.33767338E-05 0.00000000E+00 0.00000000E+00
 5 13 5.74568954E-05 0.00000000E+00 2.56955048E-05 0.00000000E+00 0.00000000E+00
 5 14 0.00000000E+00 0.00000000E+00-1.02782019E-04 0.00000000E+00 0.00000000E+00
 5 15 0.00000000E+00 0.00000000E+00 1.07135135E-05 0.00000000E+00-2.12700265E-05
 5 16 0.00000000E+00 0.00000000E+00 0.00000000E+00 0.00000000E+00 0.00000000E+00
 5 17 0.00000000E+00 0.00000000E+00 0.00000000E+00 1.41630484E-05 4.14108410E-05
 5 18 1.09990491E-04 1.38394431E-05-1.25862982E-05 1.02152142E-05-2.18654243E-05
 5 19 0.00000000E+00 3.81720345E-05-6.23773778E-05 0.00000000E+00 1.77603714E-05
 5 20-3.00817072E-05 0.00000000E+00-4.54164189E-06 1.44908232E-05-9.94918133E-06
 5 21-1.25289002E-05 0.00000000E+00 0.00000000E+00 5.97319632E-06-5.03741816E-06
 5 22-9.35778159E-07-7.39394651E-06 0.00000000E+00 0.00000000E+00 5.20628541E-06
 5 23 4.43022952E-06 0.00000000E+00 1.43370720E-06 0.00000000E+00-1.11719495E-05
 5 24 0.00000000E+00 4.18698466E-06-7.37748381E-06 0.00000000E+00-4.14108410E-05
 5 25-1.09990491E-04-1.38394431E-05 1.25862982E-05-1.02152142E-05-2.18654243E-05
 5 26 0.00000000E+00-3.81720345E-05-6.23773778E-05 0.00000000E+00-1.77603714E-05
 5 27-3.00817072E-05 0.00000000E+00 4.54164189E-06-1.44908232E-05 9.94918133E-06
 5 28-1.25289002E-05 0.00000000E+00 0.00000000E+00-5.97319632E-06 5.03741816E-06
 5 29 9.35778159E-07-7.39394651E-06 0.00000000E+00 0.00000000E+00-5.20628541E-06
 5 30 4.43022952E-06 0.00000000E+00 1.43370720E-06 0.00000000E+00 1.11719495E-05
 5 31 0.00000000E+00-4.18698466E-06-7.37748381E-06 0.00000000E+00 0.00000000E+00
 5 32 0.00000000E+00 0.00000000E+00 0.00000000E+00 0.00000000E+00-4.17215431E-06
 5 33 0.00000000E+00 0.00000000E+00 3.73852536E-06 0.00000000E+00 0.00000000E+00
 5 34 6.80158489E-07 0.00000000E+00 0.00000000E+00 0.00000000E+00 0.00000000E+00
 5 35 6.50356494E-06 0.00000000E+00 0.00000000E+00 0.00000000E+00 0.00000000E+00
 5 36 0.00000000E+00-1.84045610E-05 0.00000000E+00 0.00000000E+00 0.00000000E+00
 5 37-5.42073012E-07 0.00000000E+00 8.52680921E-07 0.00000000E+00 0.00000000E+00
 5 38 0.00000000E+00 0.00000000E+00-1.25413659E-07 0.00000000E+00
 6  1-5.72907308E-06-1.82255013E-05-1.10777387E-04-2.35962583E-04-1.47467592E-04
 6  2 1.31001071E-04-6.28318416E-05 0.00000000E+00 0.00000000E+00 0.00000000E+00
 6  3 0.00000000E+00 0.00000000E+00 0.00000000E+00 0.00000000E+00 0.00000000E+00
 6  4 0.00000000E+00 0.00000000E+00 0.00000000E+00 0.00000000E+00 0.00000000E+00
 6  5 0.00000000E+00 0.00000000E+00 0.00000000E+00 0.00000000E+00 0.00000000E+00
 6  6-4.04101794E-05-4.04101794E-05 8.08203588E-05 0.00000000E+00 0.00000000E+00
 6  7 0.00000000E+00-7.78560499E-05-7.78560499E-05 1.55712100E-04 0.00000000E+00
 6  8 0.00000000E+00 0.00000000E+00-3.69533506E-05-3.69533506E-05 7.39067013E-05
 6  9 0.00000000E+00 0.00000000E+00 0.00000000E+00-6.38483223E-05-6.38483223E-05
 6 10 1.27696645E-04 0.00000000E+00 0.00000000E+00 0.00000000E+00 1.95015886E-05
 6 11 0.00000000E+00 0.00000000E+00 0.00000000E+00 0.00000000E+00-2.61641266E-05
 6 12 0.00000000E+00 0.00000000E+00 0.00000000E+00 0.00000000E+00-4.88054019E-05
 6 13 0.00000000E+00 0.00000000E+00 0.00000000E+00 0.00000000E+00 6.54793177E-05
 6 14 0.00000000E+00 0.00000000E+00 0.00000000E+00 0.00000000E+00 7.89485453E-07
 6 15 7.89485453E-07 2.10529454E-06 0.00000000E+00 0.00000000E+00 0.00000000E+00
 6 16 0.00000000E+00 0.00000000E+00 0.00000000E+00 4.62275347E-07-1.84910139E-06
 6 17-1.84910139E-06 0.00000000E+00 0.00000000E+00 0.00000000E+00 5.67627504E-01
 6 18 1.07931747E-03 1.83611654E-02 1.03573905E-03-2.67820991E-04 4.63879563E-04
 6 19 0.00000000E+00 2.93833403E-04-5.08934384E-04 0.00000000E+00-1.95818541E-05
 6 20 3.39167661E-05 0.00000000E+00-1.19157591E-05 5.81208331E-05-4.62050740E-05
 6 21-7.00365921E-05 0.00000000E+00 0.00000000E+00-3.87357365E-08 4.46060280E-05
 6 22-4.45672922E-05-4.46447637E-05 0.00000000E+00 0.00000000E+00-7.81772033E-06
 6 23-8.39933899E-06 0.00000000E+00-3.75629859E-06 0.00000000E+00 1.91633725E-05
 6 24 0.00000000E+00-8.67480001E-06 1.50251944E-05 0.00000000E+00 5.67627504E-01
 6 25 1.07931747E-03 1.83611654E-02 1.03573905E-03-2.67820991E-04-4.63879563E-04
 6 26 0.00000000E+00 2.93833403E-04 5.08934384E-04 0.00000000E+00-1.95818541E-05
 6 27-3.39167661E-05 0.00000000E+00-1.19157591E-05 5.81208331E-05-4.62050740E-05
 6 28 7.00365921E-05 0.00000000E+00 0.00000000E+00-3.87357365E-08 4.46060280E-05
 6 29-4.45672922E-05 4.46447637E-05 0.00000000E+00 0.00000000E+00-7.81772033E-06
 6 30 8.39933899E-06 0.00000000E+00 3.75629859E-06 0.00000000E+00 1.91633725E-05
 6 31 0.00000000E+00-8.67480001E-06-1.50251944E-05 0.00000000E+00 5.67627504E-01
 6 32 1.07931747E-03 1.83611654E-02 1.03573905E-03 5.35641981E-04 0.00000000E+00
 6 33 0.00000000E+00-5.87666807E-04 0.00000000E+00 0.00000000E+00 3.91637081E-05
 6 34 0.00000000E+00 0.00000000E+00 9.31391291E-05-4.69340552E-05-4.62050740E-05
 6 35 0.00000000E+00 0.00000000E+00 0.00000000E+00 6.69284098E-05-2.23611176E-05
 6 36-4.45672922E-05 0.00000000E+00 0.00000000E+00 0.00000000E+00-2.23658022E-05
 6 37 0.00000000E+00 0.00000000E+00 0.00000000E+00 0.00000000E+00 1.26572725E-05
 6 38 0.00000000E+00 1.73496000E-05 0.00000000E+00 0.00000000E+00
 7  1 0.00000000E+00 0.00000000E+00 0.00000000E+00 0.00000000E+00 0.00000000E+00
 7  2 0.00000000E+00 0.00000000E+00-2.40217977E-05 0.00000000E+00 0.00000000E+00
 7  3-1.43555939E-04 0.00000000E+00 0.00000000E+00-1.74125376E-03 0.00000000E+00
 7  4 0.00000000E+00-2.39514701E-03 0.00000000E+00 0.00000000E+00 2.54967555E-04
 7  5 0.00000000E+00 0.00000000E+00-7.40940437E-05 0.00000000E+00 0.00000000E+00
 7  6-1.50297652E-04 1.50297652E-04 0.00000000E+00 0.00000000E+00 0.00000000E+00
 7  7 0.00000000E+00-2.98088247E-04 2.98088247E-04 0.00000000E+00 0.00000000E+00
 7  8 0.00000000E+00 0.00000000E+00-1.48660090E-04 1.48660090E-04 0.00000000E+00
 7  9 0.00000000E+00 0.00000000E+00 0.00000000E+00-2.96851680E-04 2.96851680E-04
 7 10 0.00000000E+00 0.00000000E+00 0.00000000E+00 0.00000000E+00 1.17945531E-05
 7 11 0.00000000E+00 0.00000000E+00 0.00000000E+00 0.00000000E+00 5.27468451E-06
 7 12 0.00000000E+00-2.10987380E-05 0.00000000E+00 0.00000000E+00-3.91389931E-05
 7 13 0.00000000E+00 0.00000000E+00 0.00000000E+00 0.00000000E+00-1.75034898E-05
 7 14 0.00000000E+00 7.00139593E-05 0.00000000E+00 0.00000000E+00 1.66334751E-06
 7 15 1.43482558E-06 0.00000000E+00 0.00000000E+00 0.00000000E+00 0.00000000E+00
 7 16 0.00000000E+00 0.00000000E+00 0.00000000E+00-2.72115660E-06-2.00713112E-07
 7 17 2.00713112E-07 0.00000000E+00 0.00000000E+00 0.00000000E+00-4.01342581E-01
 7 18-7.07051958E-04-1.29884056E-02-9.16967764E-04 1.91112206E-04-3.38159043E-04
 7 19 0.00000000E+00-2.07927099E-04 3.92078354E-04 0.00000000E+00-6.83342715E-05
 7 20-3.58951962E-05 0.00000000E+00 7.83542394E-06-4.48719887E-05 3.70365648E-05
 7 21 4.15857195E-05 0.00000000E+00 0.00000000E+00 1.80107490E-07-2.26275498E-05
 7 22 2.24474423E-05 6.12281701E-05 0.00000000E+00 0.00000000E+00 7.90533461E-06
 7 23 2.69269084E-06 0.00000000E+00 4.99998007E-06 0.00000000E+00-1.64822020E-05
 7 24 0.00000000E+00 5.87608270E-06-8.61260394E-06 0.00000000E+00-4.01342581E-01
 7 25-7.07051958E-04-1.29884056E-02-9.16967764E-04 1.91112206E-04 3.38159043E-04
 7 26 0.00000000E+00-2.07927099E-04-3.92078354E-04 0.00000000E+00-6.83342715E-05
 7 27 3.58951962E-05 0.00000000E+00 7.83542394E-06-4.48719887E-05 3.70365648E-05
 7 28-4.15857195E-05 0.00000000E+00 0.00000000E+00 1.80107490E-07-2.26275498E-05
 7 29 2.24474423E-05-6.12281701E-05 0.00000000E+00 0.00000000E+00 7.90533461E-06
 7 30-2.69269084E-06 0.00000000E+00-4.99998007E-06 0.00000000E+00-1.64822020E-05
 7 31 0.00000000E+00 5.87608270E-06 8.61260394E-06 0.00000000E+00 8.02685162E-01
 7 32 1.41410392E-03 2.59768111E-02 1.83393553E-03 7.76820849E-04 0.00000000E+00
 7 33 0.00000000E+00-8.87026729E-04 0.00000000E+00 0.00000000E+00-6.16196791E-06
 7 34 0.00000000E+00 0.00000000E+00 1.25768850E-04-5.16957207E-05-7.40731296E-05
 7 35 0.00000000E+00 0.00000000E+00 0.00000000E+00 1.25693526E-04-8.07986415E-05
 7 36-4.48948846E-05 0.00000000E+00 0.00000000E+00 0.00000000E+00-3.40042774E-05
 7 37 0.00000000E+00 0.00000000E+00 0.00000000E+00 0.00000000E+00 2.48279752E-05
 7 38 0.00000000E+00 2.07935503E-05 0.00000000E+00 0.00000000E+00
 8  1 0.00000000E+00 0.00000000E+00 0.00000000E+00 0.00000000E+00 0.00000000E+00
 8  2 0.00000000E+00 0.00000000E+00 0.00000000E+00 2.40217977E-05 0.00000000E+00
 8  3 0.00000000E+00 1.43555939E-04 0.00000000E+00 0.00000000E+00 1.74125376E-03
 8  4 0.00000000E+00 0.00000000E+00 2.39514701E-03 0.00000000E+00 0.00000000E+00
 8  5-2.54967555E-04 0.00000000E+00 0.00000000E+00 7.40940437E-05 0.00000000E+00
 8  6 0.00000000E+00 0.00000000E+00 0.00000000E+00-1.73548780E-04 0.00000000E+00
 8  7 0.00000000E+00 0.00000000E+00 0.00000000E+00 0.00000000E+00-3.44202660E-04
 8  8 0.00000000E+00 0.00000000E+00 0.00000000E+00 0.00000000E+00 0.00000000E+00
 8  9-1.71657886E-04 0.00000000E+00 0.00000000E+00 0.00000000E+00 0.00000000E+00
 8 10 0.00000000E+00-3.42774795E-04 0.00000000E+00 0.00000000E+00 0.00000000E+00
 8 11-1.17945531E-05 0.00000000E+00-5.27468451E-06 0.00000000E+00 0.00000000E+00
 8 12 0.00000000E+00 0.00000000E+00 2.10987380E-05 0.00000000E+00 0.00000000E+00
 8 13 3.91389931E-05 0.00000000E+00 1.75034898E-05 0.00000000E+00 0.00000000E+00
 8 14 0.00000000E+00 0.00000000E+00-7.00139593E-05 0.00000000E+00 0.00000000E+00
 8 15 0.00000000E+00 0.00000000E+00-2.25562554E-06 0.00000000E+00 2.42837188E-06
 8 16 0.00000000E+00 0.00000000E+00 0.00000000E+00 0.00000000E+00 0.00000000E+00
 8 17 0.00000000E+00 0.00000000E+00 0.00000000E+00-2.31763538E-07-6.95145742E-01
 8 18-1.22464991E-03-2.24965783E-02-1.58823476E-03 3.38159043E-04-5.81584635E-04
 8 19 0.00000000E+00-3.92078354E-04 6.60660186E-04 0.00000000E+00 3.58951962E-05
 8 20 2.68860691E-05 0.00000000E+00 3.93968352E-06-6.80888955E-05 6.41492119E-05
 8 21 7.84496915E-05 0.00000000E+00 0.00000000E+00 3.35850954E-05-7.24652060E-05
 8 22 3.88801105E-05 8.38682080E-05 0.00000000E+00 0.00000000E+00 1.45673418E-05
 8 23 1.00693222E-05 0.00000000E+00 2.31164773E-06 0.00000000E+00-2.81567439E-05
 8 24 0.00000000E+00 8.61260394E-06-1.58210611E-05 0.00000000E+00 6.95145742E-01
 8 25 1.22464991E-03 2.24965783E-02 1.58823476E-03-3.38159043E-04-5.81584635E-04
 8 26 0.00000000E+00 3.92078354E-04 6.60660186E-04 0.00000000E+00-3.58951962E-05
 8 27 2.68860691E-05 0.00000000E+00-3.93968352E-06 6.80888955E-05-6.41492119E-05
 8 28 7.84496915E-05 0.00000000E+00 0.00000000E+00-3.35850954E-05 7.24652060E-05
 8 29-3.88801105E-05 8.38682080E-05 0.00000000E+00 0.00000000E+00-1.45673418E-05
 8 30 1.00693222E-05 0.00000000E+00 2.31164773E-06 0.00000000E+00 2.81567439E-05
 8 31 0.00000000E+00-8.61260394E-06-1.58210611E-05 0.00000000E+00 0.00000000E+00
 8 32 0.00000000E+00 0.00000000E+00 0.00000000E+00 0.00000000E+00 4.12400803E-06
 8 33 0.00000000E+00 0.00000000E+00-1.84394445E-05 0.00000000E+00 0.00000000E+00
 8 34 8.90583727E-05 0.00000000E+00 0.00000000E+00 0.00000000E+00 0.00000000E+00
 8 35 6.42111256E-06 0.00000000E+00 0.00000000E+00 0.00000000E+00 0.00000000E+00
 8 36 0.00000000E+00-2.21820934E-05 0.00000000E+00 0.00000000E+00 0.00000000E+00
 8 37-1.94503625E-06 0.00000000E+00 3.51313346E-06 0.00000000E+00 0.00000000E+00
 8 38 0.00000000E+00 0.00000000E+00-9.03593495E-07 0.00000000E+00
 9  1-3.41461239E-03-1.21836737E-02 9.42905439E-01-2.07406451E-01 2.76297438E-02
 9  2-1.70934793E-01 1.04696946E-03 0.00000000E+00 0.00000000E+00 0.00000000E+00
 9  3 0.00000000E+00 0.00000000E+00 0.00000000E+00 0.00000000E+00 0.00000000E+00
 9  4 0.00000000E+00 0.00000000E+00 0.00000000E+00 0.00000000E+00 0.00000000E+00
 9  5 0.00000000E+00 0.00000000E+00 0.00000000E+00 0.00000000E+00 0.00000000E+00
 9  6 1.19248193E-03 1.19248193E-03-2.38496385E-03 0.00000000E+00 0.00000000E+00
 9  7 0.00000000E+00 2.11541626E-03 2.11541626E-03-4.23083251E-03 0.00000000E+00
 9  8 0.00000000E+00 0.00000000E+00-1.70999949E-03-1.70999949E-03 3.41999899E-03
 9  9 0.00000000E+00 0.00000000E+00 0.00000000E+00-3.94904138E-04-3.94904138E-04
 9 10 7.89808276E-04 0.00000000E+00 0.00000000E+00 0.00000000E+00 2.14046403E-04
 9 11 0.00000000E+00 0.00000000E+00 0.00000000E+00 0.00000000E+00-2.87173385E-04
 9 12 0.00000000E+00 0.00000000E+00 0.00000000E+00 0.00000000E+00 3.61213707E-03
 9 13 0.00000000E+00 0.00000000E+00 0.00000000E+00 0.00000000E+00-4.84619042E-03
 9 14 0.00000000E+00 0.00000000E+00 0.00000000E+00 0.00000000E+00 2.27740924E-04
 9 15 2.27740924E-04 6.07309130E-04 0.00000000E+00 0.00000000E+00 0.00000000E+00
 9 16 0.00000000E+00 0.00000000E+00 0.00000000E+00 1.33351430E-04-5.33405722E-04
 9 17-5.33405722E-04 0.00000000E+00 0.00000000E+00 0.00000000E+00 2.42853543E-04
 9 18 1.73504163E-03 5.31795882E-04-1.36670335E-03 3.39715864E-04-5.88405137E-04
 9 19 0.00000000E+00 3.82870764E-04-6.63151616E-04 0.00000000E+00-6.60466263E-04
 9 20 1.14396112E-03 0.00000000E+00-2.06197958E-05 1.33049828E-04-1.12430032E-04
 9 21-1.53669623E-04 0.00000000E+00 0.00000000E+00-1.95642438E-05-3.39840801E-05
 9 22 5.35483239E-05 1.44198362E-05 0.00000000E+00 0.00000000E+00-5.76470960E-05
 9 23-2.81653551E-05 0.00000000E+00-1.25959297E-05 0.00000000E+00 1.06430749E-04
 9 24 0.00000000E+00-2.90890536E-05 5.03837188E-05 0.00000000E+00 2.42853543E-04
 9 25 1.73504163E-03 5.31795882E-04-1.36670335E-03 3.39715864E-04 5.88405137E-04
 9 26 0.00000000E+00 3.82870764E-04 6.63151616E-04 0.00000000E+00-6.60466263E-04
 9 27-1.14396112E-03 0.00000000E+00-2.06197958E-05 1.33049828E-04-1.12430032E-04
 9 28 1.53669623E-04 0.00000000E+00 0.00000000E+00-1.95642438E-05-3.39840801E-05
 9 29 5.35483239E-05-1.44198362E-05 0.00000000E+00 0.00000000E+00-5.76470960E-05
 9 30 2.81653551E-05 0.00000000E+00 1.25959297E-05 0.00000000E+00 1.06430749E-04
 9 31 0.00000000E+00-2.90890536E-05-5.03837188E-05 0.00000000E+00 2.42853543E-04
 9 32 1.73504163E-03 5.31795882E-04-1.36670335E-03-6.79431729E-04 0.00000000E+00
 9 33 0.00000000E+00-7.65741529E-04 0.00000000E+00 0.00000000E+00 1.32093253E-03
 9 34 0.00000000E+00 0.00000000E+00 2.09884639E-04-9.74546075E-05-1.12430032E-04
 9 35 0.00000000E+00 0.00000000E+00 0.00000000E+00-4.11939982E-05-1.23543257E-05
 9 36 5.35483239E-05 0.00000000E+00 0.00000000E+00 0.00000000E+00-1.06430922E-04
 9 37 0.00000000E+00 0.00000000E+00 0.00000000E+00 0.00000000E+00 8.46139586E-05
 9 38 0.00000000E+00 5.81781073E-05 0.00000000E+00 0.00000000E+00
10  1 0.00000000E+00 0.00000000E+00 0.00000000E+00 0.00000000E+00 0.00000000E+00
10  2 0.00000000E+00 0.00000000E+00-5.41051990E-03 0.00000000E+00 0.00000000E+00
10  3 9.76749837E-01 0.00000000E+00 0.00000000E+00 8.69359001E-01 0.00000000E+00
10  4 0.00000000E+00 7.98314245E-01 0.00000000E+00 0.00000000E+00-1.88747615E-01
10  5 0.00000000E+00 0.00000000E+00 8.97665723E-04 0.00000000E+00 0.00000000E+00
10  6 3.07264487E-03-3.07264487E-03 0.00000000E+00 0.00000000E+00 0.00000000E+00
10  7 0.00000000E+00 3.91870526E-03-3.91870526E-03 0.00000000E+00 0.00000000E+00
10  8 0.00000000E+00 0.00000000E+00-1.90002190E-03 1.90002190E-03 0.00000000E+00