 !Step 2: single point gmcpt calculation averaging 10 states
 !        for FeF4- at optimized geometry. The UHF orbitals at
 !        the MP2 optimized structure is taken as the initial
 !        guess of orbitals in the $VEC group. 
 $system kdiag=3 mwords=100 memddi=1000 parall=.t. $end
 $contrl runtyp=energy ispher=1 $end
 $contrl icut=9 itol=20 inttyp=rysquad qmttol=1.0d-05 nosym=0 $end
 $scf    npunch=2 conv=1.0d-06 dirscf=.t. diis=.t. soscf=.f. ethrsh=10.0 $end
 $contrl scftyp=rohf  mult=5 maxit=200 icharg=0 $end
 $guess  guess=moread norb=158 purify=.t. $end
 $basis  gbasis=cct $end
 $mcscf  cistep=gmcci fullnr=.t. finci=mos
         acurcy=1.d-6 maxit=100 $end
 $trans  dirtrf=.t. $end
 $mrmp   mrpt=gmcpt rdvecs=.f. $end
 $gmcpt  nmofzc=27 nmodoc=0 nmoact=5 nelact=5 stsym(1)=A nsolut=100
         reftyp=ormas nspace=1 mstart(1)=28 mine(1)=5 maxe(1)=5
         kstate(1)=1
         wstate(1)=1
         iwgt=0 thrwgt=-1.0 krot=.f. kszdoe=.f. knospn=.f.
         thrde=-1.0 edshft=0.02 $end
 $statpt hssend=.t. $end
 $data
 FeH4- 10 states calculation at opt geometry.
 dnh 3

 Co     27.0   0.0  0.0  0.0
 F       9.0   1.715  0.0  0.0
 $end
--- OPEN SHELL ORBITALS --- GENERATED AT Mon Mar 13 14:40:51 2023
 FeH4- 10 states calculation at opt geometry.                                   
E(ROHF)=    -1679.3394087504, E(NUC)=  268.2284123203,   72 ITERS
 $VEC   
 1  1 9.82352277E-01-1.87044062E-01-3.91470689E-04 6.85147496E-05-3.11474133E-05
 1  2 4.40851294E-05 3.74103602E-06 0.00000000E+00 0.00000000E+00 0.00000000E+00
 1  3 0.00000000E+00 0.00000000E+00 0.00000000E+00 0.00000000E+00 0.00000000E+00
 1  4 0.00000000E+00 0.00000000E+00 0.00000000E+00 0.00000000E+00 0.00000000E+00
 1  5 0.00000000E+00 0.00000000E+00 0.00000000E+00 0.00000000E+00 0.00000000E+00
 1  6-9.33558010E-07-9.33558010E-07 1.86711602E-06 0.00000000E+00 0.00000000E+00
 1  7 0.00000000E+00-1.03722679E-06-1.03722679E-06 2.07445357E-06 0.00000000E+00
 1  8 0.00000000E+00 0.00000000E+00-9.99251001E-07-9.99251001E-07 1.99850200E-06
 1  9 0.00000000E+00 0.00000000E+00 0.00000000E+00 4.16196384E-07 4.16196384E-07
 1 10-8.32392767E-07 0.00000000E+00 0.00000000E+00 0.00000000E+00 8.18925568E-07
 1 11 0.00000000E+00 0.00000000E+00 0.00000000E+00 0.00000000E+00-1.09870394E-06
 1 12 0.00000000E+00 0.00000000E+00 0.00000000E+00 0.00000000E+00-8.85748847E-07
 1 13 0.00000000E+00 0.00000000E+00 0.00000000E+00 0.00000000E+00 1.18835678E-06
 1 14 0.00000000E+00 0.00000000E+00 0.00000000E+00 0.00000000E+00-1.33484659E-08
 1 15-1.33484659E-08-3.55959090E-08 0.00000000E+00 0.00000000E+00 0.00000000E+00
 1 16 0.00000000E+00 0.00000000E+00 0.00000000E+00-7.81606128E-09 3.12642451E-08
 1 17 3.12642451E-08 0.00000000E+00 0.00000000E+00 0.00000000E+00-5.97338620E-07
 1 18-1.08055424E-06-4.40494221E-08 1.53886851E-06-1.83693618E-07 3.18166679E-07
 1 19 0.00000000E+00 2.63938092E-07-4.57154186E-07 0.00000000E+00 4.70329077E-07
 1 20-8.14633857E-07 0.00000000E+00 9.30399555E-08-4.64299106E-07 3.71259151E-07
 1 21 5.57339062E-07 0.00000000E+00 0.00000000E+00-2.51901454E-07 1.27129073E-06
 1 22-1.01938928E-06-1.52319218E-06 0.00000000E+00 0.00000000E+00-3.27380735E-07
 1 23-2.55192076E-07 0.00000000E+00-1.14125366E-07 0.00000000E+00 7.02788590E-07
 1 24 0.00000000E+00-2.63561243E-07 4.56501463E-07 0.00000000E+00-5.97338620E-07
 1 25-1.08055424E-06-4.40494221E-08 1.53886851E-06-1.83693618E-07-3.18166679E-07
 1 26 0.00000000E+00 2.63938092E-07 4.57154186E-07 0.00000000E+00 4.70329077E-07
 1 27 8.14633857E-07 0.00000000E+00 9.30399555E-08-4.64299106E-07 3.71259151E-07
 1 28-5.57339062E-07 0.00000000E+00 0.00000000E+00-2.51901454E-07 1.27129073E-06
 1 29-1.01938928E-06 1.52319218E-06 0.00000000E+00 0.00000000E+00-3.27380735E-07
 1 30 2.55192076E-07 0.00000000E+00 1.14125366E-07 0.00000000E+00 7.02788590E-07
 1 31 0.00000000E+00-2.63561243E-07-4.56501463E-07 0.00000000E+00-5.97338620E-07
 1 32-1.08055424E-06-4.40494221E-08 1.53886851E-06 3.67387236E-07 0.00000000E+00
 1 33 0.00000000E+00-5.27876184E-07 0.00000000E+00 0.00000000E+00-9.40658153E-07
 1 34 0.00000000E+00 0.00000000E+00-7.42968637E-07 3.71709486E-07 3.71259151E-07
 1 35 0.00000000E+00 0.00000000E+00 0.00000000E+00 2.03288682E-06-1.01349755E-06
 1 36-1.01938928E-06 0.00000000E+00 0.00000000E+00 0.00000000E+00-7.69386376E-07
 1 37 0.00000000E+00 0.00000000E+00 0.00000000E+00 0.00000000E+00 5.05117658E-07
 1 38 0.00000000E+00 5.27122485E-07 0.00000000E+00 0.00000000E+00
 2  1 1.87034320E-01 9.82316809E-01 6.26412229E-04-4.69800208E-04 2.74531142E-04
 2  2-2.37129801E-04-2.88523745E-05 0.00000000E+00 0.00000000E+00 0.00000000E+00
 2  3 0.00000000E+00 0.00000000E+00 0.00000000E+00 0.00000000E+00 0.00000000E+00
 2  4 0.00000000E+00 0.00000000E+00 0.00000000E+00 0.00000000E+00 0.00000000E+00
 2  5 0.00000000E+00 0.00000000E+00 0.00000000E+00 0.00000000E+00 0.00000000E+00
 2  6-3.18306457E-05-3.18306457E-05 6.36612913E-05 0.00000000E+00 0.00000000E+00
 2  7 0.00000000E+00-4.37278572E-05-4.37278572E-05 8.74557145E-05 0.00000000E+00
 2  8 0.00000000E+00 0.00000000E+00-1.21645627E-04-1.21645627E-04 2.43291254E-04
 2  9 0.00000000E+00 0.00000000E+00 0.00000000E+00 1.14096845E-05 1.14096845E-05
 2 10-2.28193689E-05 0.00000000E+00 0.00000000E+00 0.00000000E+00-9.89426868E-06
 2 11 0.00000000E+00 0.00000000E+00 0.00000000E+00 0.00000000E+00 1.32745544E-05
 2 12 0.00000000E+00 0.00000000E+00 0.00000000E+00 0.00000000E+00 6.97608638E-07
 2 13 0.00000000E+00 0.00000000E+00 0.00000000E+00 0.00000000E+00-9.35940201E-07
 2 14 0.00000000E+00 0.00000000E+00 0.00000000E+00 0.00000000E+00 2.93896819E-06
 2 15 2.93896819E-06 7.83724852E-06 0.00000000E+00 0.00000000E+00 0.00000000E+00
 2 16 0.00000000E+00 0.00000000E+00 0.00000000E+00 1.72088356E-06-6.88353426E-06
 2 17-6.88353426E-06 0.00000000E+00 0.00000000E+00 0.00000000E+00 3.61007154E-06
 2 18 3.25682385E-05 7.95997485E-06 3.08456166E-05 3.80807021E-05-6.59577109E-05
 2 19 0.00000000E+00 4.60609807E-05-7.97799588E-05 0.00000000E+00 4.03143130E-05
 2 20-6.98264384E-05 0.00000000E+00-1.22814746E-06 3.59587529E-06-2.36772782E-06
 2 21-4.82402275E-06 0.00000000E+00 0.00000000E+00 2.38932476E-06-4.31405143E-06
 2 22 1.92472667E-06 6.70337619E-06 0.00000000E+00 0.00000000E+00 3.87583895E-06
 2 23 1.97142078E-06 0.00000000E+00 8.81646174E-07 0.00000000E+00-7.23605824E-06
 2 24 0.00000000E+00 2.03607462E-06-3.52658470E-06 0.00000000E+00 3.61007154E-06
 2 25 3.25682385E-05 7.95997485E-06 3.08456166E-05 3.80807021E-05 6.59577109E-05
 2 26 0.00000000E+00 4.60609807E-05 7.97799588E-05 0.00000000E+00 4.03143130E-05
 2 27 6.98264384E-05 0.00000000E+00-1.22814746E-06 3.59587529E-06-2.36772782E-06
 2 28 4.82402275E-06 0.00000000E+00 0.00000000E+00 2.38932476E-06-4.31405143E-06
 2 29 1.92472667E-06-6.70337619E-06 0.00000000E+00 0.00000000E+00 3.87583895E-06
 2 30-1.97142078E-06 0.00000000E+00-8.81646174E-07 0.00000000E+00-7.23605824E-06
 2 31 0.00000000E+00 2.03607462E-06 3.52658470E-06 0.00000000E+00 3.61007154E-06
 2 32 3.25682385E-05 7.95997485E-06 3.08456166E-05-7.61614042E-05 0.00000000E+00
 2 33 0.00000000E+00-9.21219613E-05 0.00000000E+00 0.00000000E+00-8.06286260E-05
 2 34 0.00000000E+00 0.00000000E+00 6.00788666E-06-3.64015884E-06-2.36772782E-06
 2 35 0.00000000E+00 0.00000000E+00 0.00000000E+00-7.66573952E-06 5.74101285E-06
 2 36 1.92472667E-06 0.00000000E+00 0.00000000E+00 0.00000000E+00 7.29043989E-06
 2 37 0.00000000E+00 0.00000000E+00 0.00000000E+00 0.00000000E+00-5.70900227E-06
 2 38 0.00000000E+00-4.07214925E-06 0.00000000E+00 0.00000000E+00
 3  1 0.00000000E+00 0.00000000E+00 0.00000000E+00 0.00000000E+00 0.00000000E+00
 3  2 0.00000000E+00 0.00000000E+00 9.99993952E-01 0.00000000E+00 0.00000000E+00
 3  3 1.58621852E-03 0.00000000E+00 0.00000000E+00 1.57092230E-03 0.00000000E+00
 3  4 0.00000000E+00 1.82420283E-03 0.00000000E+00 0.00000000E+00-6.21573482E-05
 3  5 0.00000000E+00 0.00000000E+00-2.15990550E-06 0.00000000E+00 0.00000000E+00
 3  6 9.40230037E-05-9.40230037E-05 0.00000000E+00 0.00000000E+00 0.00000000E+00
 3  7 0.00000000E+00 9.38487574E-05-9.38487574E-05 0.00000000E+00 0.00000000E+00
 3  8 0.00000000E+00 0.00000000E+00 6.66868809E-05-6.66868809E-05 0.00000000E+00
 3  9 0.00000000E+00 0.00000000E+00 0.00000000E+00-1.65319704E-05 1.65319704E-05
 3 10 0.00000000E+00 0.00000000E+00 0.00000000E+00 0.00000000E+00-1.79418629E-05
 3 11 0.00000000E+00 0.00000000E+00 0.00000000E+00 0.00000000E+00-8.02384503E-06
 3 12 0.00000000E+00 3.20953801E-05 0.00000000E+00 0.00000000E+00 2.77875853E-05
 3 13 0.00000000E+00 0.00000000E+00 0.00000000E+00 0.00000000E+00 1.24269859E-05
 3 14 0.00000000E+00-4.97079437E-05 0.00000000E+00 0.00000000E+00-2.82318385E-07
 3 15-1.87570378E-06 0.00000000E+00 0.00000000E+00 0.00000000E+00 0.00000000E+00
 3 16 0.00000000E+00 0.00000000E+00 0.00000000E+00 1.89541259E-06-1.39948643E-06
 3 17 1.39948643E-06 0.00000000E+00 0.00000000E+00 0.00000000E+00-2.00327745E-05
 3 18-5.56890273E-05-1.57741005E-05-1.04960686E-05 1.04415055E-05 9.04516629E-05
 3 19 0.00000000E+00 1.74419130E-05 1.06793124E-04 0.00000000E+00 2.06976606E-05
 3 20 6.34397091E-05 0.00000000E+00-3.50942072E-07-1.61654713E-07 5.12596785E-07
 3 21 1.45546561E-06 0.00000000E+00 0.00000000E+00 2.73177855E-06-7.22716235E-07
 3 22-2.00906231E-06-5.46479788E-06 0.00000000E+00 0.00000000E+00-8.18220090E-08
 3 23-1.70724877E-07 0.00000000E+00 2.04707365E-07 0.00000000E+00 3.70919811E-08
 3 24 0.00000000E+00 7.26837633E-08 2.43440930E-08 0.00000000E+00-2.00327745E-05
 3 25-5.56890273E-05-1.57741005E-05-1.04960686E-05 1.04415055E-05-9.04516629E-05
 3 26 0.00000000E+00 1.74419130E-05-1.06793124E-04 0.00000000E+00 2.06976606E-05
 3 27-6.34397091E-05 0.00000000E+00-3.50942072E-07-1.61654713E-07 5.12596785E-07
 3 28-1.45546561E-06 0.00000000E+00 0.00000000E+00 2.73177855E-06-7.22716235E-07
 3 29-2.00906231E-06 5.46479788E-06 0.00000000E+00 0.00000000E+00-8.18220090E-08
 3 30 1.70724877E-07 0.00000000E+00-2.04707365E-07 0.00000000E+00 3.70919811E-08
 3 31 0.00000000E+00 7.26837633E-08-2.43440930E-08 0.00000000E+00 4.00655490E-05
 3 32 1.11378055E-04 3.15482011E-05 2.09921371E-05-1.46225370E-04 0.00000000E+00
 3 33 0.00000000E+00-1.67529203E-04 0.00000000E+00 0.00000000E+00-8.91831388E-05
 3 34 0.00000000E+00 0.00000000E+00 2.60115152E-06-1.57595795E-06-1.02519357E-06
 3 35 0.00000000E+00 0.00000000E+00 0.00000000E+00-8.47901174E-06 4.46088712E-06
 3 36 4.01812462E-06 0.00000000E+00 0.00000000E+00 0.00000000E+00 6.53207079E-08
 3 37 0.00000000E+00 0.00000000E+00 0.00000000E+00 0.00000000E+00-1.18155483E-07
 3 38 0.00000000E+00 3.05185574E-08 0.00000000E+00 0.00000000E+00
 4  1 0.00000000E+00 0.00000000E+00 0.00000000E+00 0.00000000E+00 0.00000000E+00
 4  2 0.00000000E+00 0.00000000E+00 0.00000000E+00 9.99993952E-01 0.00000000E+00
 4  3 0.00000000E+00 1.58621852E-03 0.00000000E+00 0.00000000E+00 1.57092230E-03
 4  4 0.00000000E+00 0.00000000E+00 1.82420283E-03 0.00000000E+00 0.00000000E+00
 4  5-6.21573482E-05 0.00000000E+00 0.00000000E+00-2.15990550E-06 0.00000000E+00
 4  6 0.00000000E+00 0.00000000E+00 0.00000000E+00-1.08568413E-04 0.00000000E+00
 4  7 0.00000000E+00 0.00000000E+00 0.00000000E+00 0.00000000E+00-1.08367211E-04
 4  8 0.00000000E+00 0.00000000E+00 0.00000000E+00 0.00000000E+00 0.00000000E+00
 4  9-7.70033773E-05 0.00000000E+00 0.00000000E+00 0.00000000E+00 0.00000000E+00
 4 10 0.00000000E+00 1.90894751E-05 0.00000000E+00 0.00000000E+00 0.00000000E+00
 4 11-1.79418629E-05 0.00000000E+00-8.02384503E-06 0.00000000E+00 0.00000000E+00
 4 12 0.00000000E+00 0.00000000E+00 3.20953801E-05 0.00000000E+00 0.00000000E+00
 4 13 2.77875853E-05 0.00000000E+00 1.24269859E-05 0.00000000E+00 0.00000000E+00
 4 14 0.00000000E+00 0.00000000E+00-4.97079437E-05 0.00000000E+00 0.00000000E+00
 4 15 0.00000000E+00 0.00000000E+00-2.23355450E-06 0.00000000E+00 1.02906835E-06
 4 16 0.00000000E+00 0.00000000E+00 0.00000000E+00 0.00000000E+00 0.00000000E+00
 4 17 0.00000000E+00 0.00000000E+00 0.00000000E+00 1.61598774E-06 3.46977833E-05
 4 18 9.64562248E-05 2.73215436E-05 1.81797240E-05 9.04516629E-05-9.40030784E-05
 4 19 0.00000000E+00 1.06793124E-04-1.05872165E-04 0.00000000E+00 6.34397091E-05
 4 20-5.25562057E-05 0.00000000E+00-8.16548354E-07 1.70439203E-06-8.87843676E-07
 4 21-1.57134181E-06 0.00000000E+00 0.00000000E+00 2.99275479E-06-6.47255279E-06
 4 22 3.47979800E-06 4.31575157E-06 0.00000000E+00 0.00000000E+00 5.77353638E-08
 4 23-1.15628446E-07 0.00000000E+00 1.10558213E-07 0.00000000E+00-1.01804212E-07
 4 24 0.00000000E+00 2.43440930E-08 4.45736260E-08 0.00000000E+00-3.46977833E-05
 4 25-9.64562248E-05-2.73215436E-05-1.81797240E-05-9.04516629E-05-9.40030784E-05
 4 26 0.00000000E+00-1.06793124E-04-1.05872165E-04 0.00000000E+00-6.34397091E-05
 4 27-5.25562057E-05 0.00000000E+00 8.16548354E-07-1.70439203E-06 8.87843676E-07
 4 28-1.57134181E-06 0.00000000E+00 0.00000000E+00-2.99275479E-06 6.47255279E-06
 4 29-3.47979800E-06 4.31575157E-06 0.00000000E+00 0.00000000E+00-5.77353638E-08
 4 30-1.15628446E-07 0.00000000E+00 1.10558213E-07 0.00000000E+00 1.01804212E-07
 4 31 0.00000000E+00-2.43440930E-08 4.45736260E-08 0.00000000E+00 0.00000000E+00
 4 32 0.00000000E+00 0.00000000E+00 0.00000000E+00 0.00000000E+00 6.26637974E-05
 4 33 0.00000000E+00 0.00000000E+00 7.90989518E-05 0.00000000E+00 0.00000000E+00
 4 34 5.73245937E-05 0.00000000E+00 0.00000000E+00 0.00000000E+00 0.00000000E+00
 4 35 9.49598569E-07 0.00000000E+00 0.00000000E+00 0.00000000E+00 0.00000000E+00
 4 36 0.00000000E+00-5.14955602E-06 0.00000000E+00 0.00000000E+00 0.00000000E+00
 4 37 1.32933582E-07 0.00000000E+00-2.65087947E-07 0.00000000E+00 0.00000000E+00
 4 38 0.00000000E+00 0.00000000E+00 8.67388320E-08 0.00000000E+00
 5  1 0.00000000E+00 0.00000000E+00 0.00000000E+00 0.00000000E+00 0.00000000E+00
 5  2 0.00000000E+00 0.00000000E+00 0.00000000E+00 0.00000000E+00 9.99994395E-01
 5  3 0.00000000E+00 0.00000000E+00 1.44434477E-03 0.00000000E+00 0.00000000E+00
 5  4 2.30962610E-03 0.00000000E+00 0.00000000E+00 2.42142045E-03 0.00000000E+00
 5  5 0.00000000E+00-2.20939587E-04 0.00000000E+00 0.00000000E+00 2.38632862E-05
 5  6 0.00000000E+00 0.00000000E+00 0.00000000E+00 0.00000000E+00 0.00000000E+00
 5  7 0.00000000E+00 0.00000000E+00 0.00000000E+00 0.00000000E+00 0.00000000E+00
 5  8 0.00000000E+00 0.00000000E+00 0.00000000E+00 0.00000000E+00 0.00000000E+00
 5  9 0.00000000E+00 0.00000000E+00 0.00000000E+00 0.00000000E+00 0.00000000E+00
 5 10 0.00000000E+00 0.00000000E+00 0.00000000E+00 0.00000000E+00 0.00000000E+00
 5 11 0.00000000E+00 8.99906464E-05 0.00000000E+00-6.03675608E-05 0.00000000E+00
 5 12-6.03675608E-05 0.00000000E+00 0.00000000E+00 0.00000000E+00 0.00000000E+00
 5 13 0.00000000E+00-3.07662762E-05 0.00000000E+00 2.06386455E-05 0.00000000E+00
 5 14 2.06386455E-05 0.00000000E+00 0.00000000E+00 0.00000000E+00 0.00000000E+00
 5 15 0.00000000E+00 0.00000000E+00 0.00000000E+00-2.28578814E-06 0.00000000E+00
 5 16 0.00000000E+00 0.00000000E+00 0.00000000E+00 0.00000000E+00 0.00000000E+00
 5 17 0.00000000E+00 0.00000000E+00 3.06670660E-06 0.00000000E+00 0.00000000E+00
 5 18 0.00000000E+00 0.00000000E+00 0.00000000E+00 0.00000000E+00 0.00000000E+00
 5 19 6.15623949E-05 0.00000000E+00 0.00000000E+00 7.31418020E-05 0.00000000E+00
 5 20 0.00000000E+00 5.44591313E-05 0.00000000E+00 0.00000000E+00 0.00000000E+00
 5 21 0.00000000E+00 8.14372921E-07-1.41053528E-06 0.00000000E+00 0.00000000E+00
 5 22 0.00000000E+00 0.00000000E+00-1.99585204E-06 3.45691715E-06 0.00000000E+00
 5 23 0.00000000E+00 1.30124898E-06 0.00000000E+00-1.67465698E-07 0.00000000E+00
 5 24-1.57834300E-06 0.00000000E+00 0.00000000E+00 1.41087730E-06 0.00000000E+00
 5 25 0.00000000E+00 0.00000000E+00 0.00000000E+00 0.00000000E+00 0.00000000E+00
 5 26 6.15623949E-05 0.00000000E+00 0.00000000E+00 7.31418020E-05 0.00000000E+00
 5 27 0.00000000E+00 5.44591313E-05 0.00000000E+00 0.00000000E+00 0.00000000E+00
 5 28 0.00000000E+00 8.14372921E-07 1.41053528E-06 0.00000000E+00 0.00000000E+00
 5 29 0.00000000E+00 0.00000000E+00-1.99585204E-06-3.45691715E-06 0.00000000E+00
 5 30 0.00000000E+00 1.30124898E-06 0.00000000E+00-1.67465698E-07 0.00000000E+00
 5 31-1.57834300E-06 0.00000000E+00 0.00000000E+00-1.41087730E-06 0.00000000E+00
 5 32 0.00000000E+00 0.00000000E+00 0.00000000E+00 0.00000000E+00 0.00000000E+00
 5 33 6.15623949E-05 0.00000000E+00 0.00000000E+00 7.31418020E-05 0.00000000E+00
 5 34 0.00000000E+00 5.44591313E-05 0.00000000E+00 0.00000000E+00 0.00000000E+00
 5 35 0.00000000E+00-1.62874584E-06 0.00000000E+00 0.00000000E+00 0.00000000E+00
 5 36 0.00000000E+00 0.00000000E+00 3.99170409E-06 0.00000000E+00 0.00000000E+00
 5 37 0.00000000E+00 1.30124898E-06 0.00000000E+00-2.28378165E-06 0.00000000E+00
 5 38 5.37972953E-07 0.00000000E+00 0.00000000E+00 0.00000000E+00
 6  1-6.56872867E-05-1.93986557E-04-9.45612670E-04-2.01679189E-03 1.60756454E-04
 6  2-1.87956768E-04 3.71891426E-04 0.00000000E+00 0.00000000E+00 0.00000000E+00
 6  3 0.00000000E+00 0.00000000E+00 0.00000000E+00 0.00000000E+00 0.00000000E+00
 6  4 0.00000000E+00 0.00000000E+00 0.00000000E+00 0.00000000E+00 0.00000000E+00
 6  5 0.00000000E+00 0.00000000E+00 0.00000000E+00 0.00000000E+00 0.00000000E+00
 6  6-1.57066990E-05-1.57066990E-05 3.14133981E-05 0.00000000E+00 0.00000000E+00
 6  7 0.00000000E+00-3.30138026E-05-3.30138026E-05 6.60276053E-05 0.00000000E+00
 6  8 0.00000000E+00 0.00000000E+00-4.28925973E-06-4.28925973E-06 8.57851946E-06
 6  9 0.00000000E+00 0.00000000E+00 0.00000000E+00-1.87972103E-04-1.87972103E-04
 6 10 3.75944205E-04 0.00000000E+00 0.00000000E+00 0.00000000E+00-2.88425454E-05
 6 11 0.00000000E+00 0.00000000E+00 0.00000000E+00 0.00000000E+00 3.86963353E-05
 6 12 0.00000000E+00 0.00000000E+00 0.00000000E+00 0.00000000E+00 9.24861597E-05
 6 13 0.00000000E+00 0.00000000E+00 0.00000000E+00 0.00000000E+00-1.24083204E-04
 6 14 0.00000000E+00 0.00000000E+00 0.00000000E+00 0.00000000E+00 4.62583033E-06
 6 15 4.62583033E-06 1.23355476E-05 0.00000000E+00 0.00000000E+00 0.00000000E+00
 6 16 0.00000000E+00 0.00000000E+00 0.00000000E+00 2.70860890E-06-1.08344356E-05
 6 17-1.08344356E-05 0.00000000E+00 0.00000000E+00 0.00000000E+00 5.63249358E-01
 6 18-7.11898451E-04 2.50536921E-02 2.36230504E-03 2.88130454E-04-4.99056585E-04
 6 19 0.00000000E+00-1.74807993E-04 3.02776325E-04 0.00000000E+00 2.90199261E-04
 6 20-5.02639864E-04 0.00000000E+00 7.33296492E-07-1.97837538E-05 1.90504573E-05
 6 21 2.05170503E-05 0.00000000E+00 0.00000000E+00 1.41430676E-05 2.90156577E-05
 6 22-4.31587253E-05-1.48725901E-05 0.00000000E+00 0.00000000E+00-2.01970729E-07
 6 23-2.54956083E-06 0.00000000E+00-1.14019827E-06 0.00000000E+00 2.90414728E-06
 6 24 0.00000000E+00-2.63317511E-06 4.56079307E-06 0.00000000E+00 5.63249358E-01
 6 25-7.11898451E-04 2.50536921E-02 2.36230504E-03 2.88130454E-04 4.99056585E-04
 6 26 0.00000000E+00-1.74807993E-04-3.02776325E-04 0.00000000E+00 2.90199261E-04
 6 27 5.02639864E-04 0.00000000E+00 7.33296492E-07-1.97837538E-05 1.90504573E-05
 6 28-2.05170503E-05 0.00000000E+00 0.00000000E+00 1.41430676E-05 2.90156577E-05
 6 29-4.31587253E-05 1.48725901E-05 0.00000000E+00 0.00000000E+00-2.01970729E-07
 6 30 2.54956083E-06 0.00000000E+00 1.14019827E-06 0.00000000E+00 2.90414728E-06
 6 31 0.00000000E+00-2.63317511E-06-4.56079307E-06 0.00000000E+00 5.63249358E-01
 6 32-7.11898451E-04 2.50536921E-02 2.36230504E-03-5.76260907E-04 0.00000000E+00
 6 33 0.00000000E+00 3.49615986E-04 0.00000000E+00 0.00000000E+00-5.80398521E-04
 6 34 0.00000000E+00 0.00000000E+00-3.00422790E-05 1.09918216E-05 1.90504573E-05
 6 35 0.00000000E+00 0.00000000E+00 0.00000000E+00 3.64519527E-05 6.70677256E-06
 6 36-4.31587253E-05 0.00000000E+00 0.00000000E+00 0.00000000E+00-4.61793963E-06
 6 37 0.00000000E+00 0.00000000E+00 0.00000000E+00 0.00000000E+00 9.29265945E-07
 6 38 0.00000000E+00 5.26635021E-06 0.00000000E+00 0.00000000E+00
 7  1 0.00000000E+00 0.00000000E+00 0.00000000E+00 0.00000000E+00 0.00000000E+00
 7  2 0.00000000E+00 0.00000000E+00-8.45000784E-05 0.00000000E+00 0.00000000E+00
 7  3-4.78048254E-04 0.00000000E+00 0.00000000E+00 6.00830684E-03 0.00000000E+00
 7  4 0.00000000E+00 4.71166639E-03 0.00000000E+00 0.00000000E+00-3.08288317E-04
 7  5 0.00000000E+00 0.00000000E+00 1.38456658E-04 0.00000000E+00 0.00000000E+00
 7  6 3.47587162E-05-3.47587162E-05 0.00000000E+00 0.00000000E+00 0.00000000E+00
 7  7 0.00000000E+00 7.08912959E-06-7.08912959E-06 0.00000000E+00 0.00000000E+00
 7  8 0.00000000E+00 0.00000000E+00 2.62457426E-05-2.62457426E-05 0.00000000E+00
 7  9 0.00000000E+00 0.00000000E+00 0.00000000E+00-6.05577592E-04 6.05577592E-04
 7 10 0.00000000E+00 0.00000000E+00 0.00000000E+00 0.00000000E+00-1.13414879E-05
 7 11 0.00000000E+00 0.00000000E+00 0.00000000E+00 0.00000000E+00-5.07206758E-06
 7 12 0.00000000E+00 2.02882703E-05 0.00000000E+00 0.00000000E+00 3.51958031E-05
 7 13 0.00000000E+00 0.00000000E+00 0.00000000E+00 0.00000000E+00 1.57400416E-05
 7 14 0.00000000E+00-6.29601666E-05 0.00000000E+00 0.00000000E+00 2.06703629E-05
 7 15 5.69814905E-06 0.00000000E+00 0.00000000E+00 0.00000000E+00 0.00000000E+00
 7 16 0.00000000E+00 0.00000000E+00 0.00000000E+00-2.31597295E-05-1.31502462E-05
 7 17 1.31502462E-05 0.00000000E+00 0.00000000E+00 0.00000000E+00-3.98273490E-01
 7 18 5.11296627E-04-1.77150539E-02-1.78345538E-03-2.04374250E-04 3.43071891E-04
 7 19 0.00000000E+00 1.31188874E-04-1.86368821E-04 0.00000000E+00-2.09415919E-04
 7 20 2.67246353E-04 0.00000000E+00-1.24424751E-05 1.32814334E-05-8.38958274E-07
 7 21-1.05405769E-05 0.00000000E+00 0.00000000E+00 2.43021868E-05-1.55905606E-05
 7 22-8.71162623E-06-4.79037854E-06 0.00000000E+00 0.00000000E+00 3.50636168E-06
 7 23 2.67376025E-06 0.00000000E+00-1.95139638E-06 0.00000000E+00-5.29072542E-06
 7 24 0.00000000E+00 5.86447580E-07-1.63582942E-06 0.00000000E+00-3.98273490E-01
 7 25 5.11296627E-04-1.77150539E-02-1.78345538E-03-2.04374250E-04-3.43071891E-04
 7 26 0.00000000E+00 1.31188874E-04 1.86368821E-04 0.00000000E+00-2.09415919E-04
 7 27-2.67246353E-04 0.00000000E+00-1.24424751E-05 1.32814334E-05-8.38958274E-07
 7 28 1.05405769E-05 0.00000000E+00 0.00000000E+00 2.43021868E-05-1.55905606E-05
 7 29-8.71162623E-06 4.79037854E-06 0.00000000E+00 0.00000000E+00 3.50636168E-06
 7 30-2.67376025E-06 0.00000000E+00 1.95139638E-06 0.00000000E+00-5.29072542E-06
 7 31 0.00000000E+00 5.86447580E-07 1.63582942E-06 0.00000000E+00 7.96546980E-01
 7 32-1.02259325E-03 3.54301077E-02 3.56691075E-03-7.98592196E-04 0.00000000E+00
 7 33 0.00000000E+00 4.53989140E-04 0.00000000E+00 0.00000000E+00-6.72300181E-04
 7 34 0.00000000E+00 0.00000000E+00-2.95117779E-05 2.78338613E-05 1.67791655E-06
 7 35 0.00000000E+00 0.00000000E+00 0.00000000E+00 4.04917969E-06-2.14724321E-05
 7 36 1.74232525E-05 0.00000000E+00 0.00000000E+00 0.00000000E+00-9.58011087E-06
 7 37 0.00000000E+00 0.00000000E+00 0.00000000E+00 0.00000000E+00 9.43328023E-06
 7 38 0.00000000E+00 3.41978725E-06 0.00000000E+00 0.00000000E+00
 8  1 0.00000000E+00 0.00000000E+00 0.00000000E+00 0.00000000E+00 0.00000000E+00
 8  2 0.00000000E+00 0.00000000E+00 0.00000000E+00 8.45000784E-05 0.00000000E+00
 8  3 0.00000000E+00 4.78048254E-04 0.00000000E+00 0.00000000E+00-6.00830684E-03
 8  4 0.00000000E+00 0.00000000E+00-4.71166639E-03 0.00000000E+00 0.00000000E+00
 8  5 3.08288317E-04 0.00000000E+00 0.00000000E+00-1.38456658E-04 0.00000000E+00
 8  6 0.00000000E+00 0.00000000E+00 0.00000000E+00 4.01359083E-05 0.00000000E+00
 8  7 0.00000000E+00 0.00000000E+00 0.00000000E+00 0.00000000E+00 8.18582175E-06
 8  8 0.00000000E+00 0.00000000E+00 0.00000000E+00 0.00000000E+00 0.00000000E+00
 8  9 3.03059732E-05 0.00000000E+00 0.00000000E+00 0.00000000E+00 0.00000000E+00
 8 10 0.00000000E+00-6.99260771E-04 0.00000000E+00 0.00000000E+00 0.00000000E+00
 8 11 1.13414879E-05 0.00000000E+00 5.07206758E-06 0.00000000E+00 0.00000000E+00
 8 12 0.00000000E+00 0.00000000E+00-2.02882703E-05 0.00000000E+00 0.00000000E+00
 8 13-3.51958031E-05 0.00000000E+00-1.57400416E-05 0.00000000E+00 0.00000000E+00
 8 14 0.00000000E+00 0.00000000E+00 6.29601666E-05 0.00000000E+00 0.00000000E+00
 8 15 0.00000000E+00 0.00000000E+00-1.42737565E-05 0.00000000E+00 2.55916864E-05
 8 16 0.00000000E+00 0.00000000E+00 0.00000000E+00 0.00000000E+00 0.00000000E+00
 8 17 0.00000000E+00 0.00000000E+00 0.00000000E+00-1.51845963E-05-6.89829920E-01
 8 18 8.85591736E-04-3.06833733E-02-3.08903532E-03-3.43071891E-04 6.00519548E-04
 8 19 0.00000000E+00 1.86368821E-04-3.46389051E-04 0.00000000E+00-2.67246353E-04
 8 20 5.18005427E-04 0.00000000E+00-8.40184817E-06 9.85496652E-06-1.45311836E-06
 8 21-2.70229153E-05 0.00000000E+00 0.00000000E+00 3.39590011E-06 1.16930791E-05
 8 22-1.50889792E-05 1.75006358E-05 0.00000000E+00 0.00000000E+00 5.72656555E-06
 8 23 3.68022991E-07 0.00000000E+00 1.98158604E-06 0.00000000E+00-9.31882333E-06
 8 24 0.00000000E+00 1.63582942E-06-2.47534069E-06 0.00000000E+00 6.89829920E-01
 8 25-8.85591736E-04 3.06833733E-02 3.08903532E-03 3.43071891E-04 6.00519548E-04
 8 26 0.00000000E+00-1.86368821E-04-3.46389051E-04 0.00000000E+00 2.67246353E-04
 8 27 5.18005427E-04 0.00000000E+00 8.40184817E-06-9.85496652E-06 1.45311836E-06
 8 28-2.70229153E-05 0.00000000E+00 0.00000000E+00-3.39590011E-06-1.16930791E-05
 8 29 1.50889792E-05 1.75006358E-05 0.00000000E+00 0.00000000E+00-5.72656555E-06
 8 30 3.68022991E-07 0.00000000E+00 1.98158604E-06 0.00000000E+00 9.31882333E-06
 8 31 0.00000000E+00-1.63582942E-06-2.47534069E-06 0.00000000E+00 0.00000000E+00
 8 32 0.00000000E+00 0.00000000E+00 0.00000000E+00 0.00000000E+00 6.30160148E-06
 8 33 0.00000000E+00 0.00000000E+00-2.35887850E-05 0.00000000E+00 0.00000000E+00
 8 34 5.51211657E-05 0.00000000E+00 0.00000000E+00 0.00000000E+00 0.00000000E+00
 8 35-8.76610064E-06 0.00000000E+00 0.00000000E+00 0.00000000E+00 0.00000000E+00
 8 36 0.00000000E+00 2.57978148E-05 0.00000000E+00 0.00000000E+00 0.00000000E+00
 8 37 1.83134153E-06 0.00000000E+00-2.81500147E-06 0.00000000E+00 0.00000000E+00
 8 38 0.00000000E+00 0.00000000E+00 3.57998976E-07 0.00000000E+00
 9  1-1.26442482E-04-1.98152538E-03 9.93079486E-01-2.43963668E-02-5.25354655E-03
 9  2-2.10721833E-02-1.31611447E-04 0.00000000E+00 0.00000000E+00 0.00000000E+00
 9  3 0.00000000E+00 0.00000000E+00 0.00000000E+00 0.00000000E+00 0.00000000E+00
 9  4 0.00000000E+00 0.00000000E+00 0.00000000E+00 0.00000000E+00 0.00000000E+00
 9  5 0.00000000E+00 0.00000000E+00 0.00000000E+00 0.00000000E+00 0.00000000E+00
 9  6-2.49454827E-03-2.49454827E-03 4.98909654E-03 0.00000000E+00 0.00000000E+00
 9  7 0.00000000E+00 1.08074150E-03 1.08074150E-03-2.16148300E-03 0.00000000E+00
 9  8 0.00000000E+00 0.00000000E+00 6.85250824E-04 6.85250824E-04-1.37050165E-03
 9  9 0.00000000E+00 0.00000000E+00 0.00000000E+00-1.52016177E-04-1.52016177E-04
 9 10 3.04032355E-04 0.00000000E+00 0.00000000E+00 0.00000000E+00-2.38686450E-04
 9 11 0.00000000E+00 0.00000000E+00 0.00000000E+00 0.00000000E+00 3.20231477E-04
 9 12 0.00000000E+00 0.00000000E+00 0.00000000E+00 0.00000000E+00-1.01600452E-04
 9 13 0.00000000E+00 0.00000000E+00 0.00000000E+00 0.00000000E+00 1.36311310E-04
 9 14 0.00000000E+00 0.00000000E+00 0.00000000E+00 0.00000000E+00 3.25459082E-05
 9 15 3.25459082E-05 8.67890885E-05 0.00000000E+00 0.00000000E+00 0.00000000E+00
 9 16 0.00000000E+00 0.00000000E+00 0.00000000E+00 1.90569325E-05-7.62277300E-05
 9 17-7.62277300E-05 0.00000000E+00 0.00000000E+00 0.00000000E+00-1.11337226E-04
 9 18 2.60708015E-03 5.12862537E-04 1.95197660E-03 9.26961840E-04-1.60554500E-03
 9 19 0.00000000E+00 1.50554101E-03-2.60767352E-03 0.00000000E+00 7.83098910E-04
 9 20-1.35636710E-03 0.00000000E+00-1.73195928E-05 8.17725069E-05-6.44529141E-05
 9 21-9.90920997E-05 0.00000000E+00 0.00000000E+00-9.83194176E-05 4.49642944E-04
 9 22-3.51323527E-04-5.47962362E-04 0.00000000E+00 0.00000000E+00-6.03185421E-05
 9 23-3.89420019E-05 0.00000000E+00-1.74153927E-05 0.00000000E+00 1.21144943E-04
 9 24 0.00000000E+00-4.02191266E-05 6.96615707E-05 0.00000000E+00-1.11337226E-04
 9 25 2.60708015E-03 5.12862537E-04 1.95197660E-03 9.26961840E-04 1.60554500E-03
 9 26 0.00000000E+00 1.50554101E-03 2.60767352E-03 0.00000000E+00 7.83098910E-04
 9 27 1.35636710E-03 0.00000000E+00-1.73195928E-05 8.17725069E-05-6.44529141E-05
 9 28 9.90920997E-05 0.00000000E+00 0.00000000E+00-9.83194176E-05 4.49642944E-04
 9 29-3.51323527E-04 5.47962362E-04 0.00000000E+00 0.00000000E+00-6.03185421E-05
 9 30 3.89420019E-05 0.00000000E+00 1.74153927E-05 0.00000000E+00 1.21144943E-04
 9 31 0.00000000E+00-4.02191266E-05-6.96615707E-05 0.00000000E+00-1.11337226E-04
 9 32 2.60708015E-03 5.12862537E-04 1.95197660E-03-1.85392368E-03 0.00000000E+00
 9 33 0.00000000E+00-3.01108202E-03 0.00000000E+00 0.00000000E+00-1.56619782E-03
 9 34 0.00000000E+00 0.00000000E+00 1.31318557E-04-6.68656427E-05-6.44529141E-05
 9 35 0.00000000E+00 0.00000000E+00 0.00000000E+00 7.23624125E-04-3.72300598E-04
 9 36-3.51323527E-04 0.00000000E+00 0.00000000E+00 0.00000000E+00-1.27768068E-04
 9 37 0.00000000E+00 0.00000000E+00 0.00000000E+00 0.00000000E+00 9.09805980E-05
 9 38 0.00000000E+00 8.04382532E-05 0.00000000E+00 0.00000000E+00
10  1 0.00000000E+00 0.00000000E+00 0.00000000E+00 0.00000000E+00 0.00000000E+00
10  2 0.00000000E+00 0.00000000E+00-1.97414004E-03 0.00000000E+00 0.00000000E+00
10  3 9.92362583E-01 0.00000000E+00 0.00000000E+00 7.72541654E-02 0.00000000E+00
10  4 0.00000000E+00 5.87246904E-02 0.00000000E+00 0.00000000E+00-2.56208754E-02
10  5 0.00000000E+00 0.00000000E+00 7.49868764E-04 0.00000000E+00 0.00000000E+00
10  6-6.28335825E-03 6.28335825E-03 0.00000000E+00 0.00000000E+00 0.00000000E+00
10  7 0.00000000E+00 3.07257916E-03-3.07257916E-03 0.00000000E+00 0.00000000E+00
10  8 0.00000000E+00 0.00000000E+00 6.43344181E-04-6.43344181E-04 0.00000000E+00