 !Step 1: Geometry optimization and Hessian calculation of AsH3 at MP2 level.
 $system kdiag=3 mwords=250 memddi=8000 parall=.t. $end
 $contrl runtyp=optimize ispher=1 $end
 $scf    npunch=2 conv=1.0d-06 dirscf=.t.      $end
 $contrl scftyp=rhf  mult=1 maxit=200 icharg=0 mplevl=2 $end
 $basis  gbasis=cct $end
 $statpt hssend=.t. nstep=200 $end
 $force  method=seminum $end
 $trans  dirtrf=.t. $end
 $data
 AsH3 MP2 Geometry Opt and Hessian
DNH 3

As    33.0     0.00000     0.00000     0.00000
H     1.0     1.57000     0.00000     0.00000
 $end
    
