 !Step 2: single point gmcpt calculation averaging 4 states
 !        for AsH3+ at AsH3 structure. The ROHF orbitals at
 !        the MP2 optimized structure is taken as the initial
 !        guess of orbitals in the $VEC group.
 $system kdiag=3 mwords=250 memddi=8000 parall=.t. $end
 $contrl runtyp=energy ispher=1 $end
 $contrl icut=9 itol=20 inttyp=rysquad qmttol=1.0d-05 nosym=1 $end
 $scf    npunch=2 conv=1.0d-06 dirscf=.t. diis=.t. soscf=.f. ethrsh=10.0 $end
 $contrl scftyp=mcscf  mult=2 maxit=200 icharg=1 mplevl=2 $end
 $guess  guess=moread norb=85 purify=.t. $end
 $basis  gbasis=cct $end
 $mcscf  cistep=gmcci fullnr=.t. finci=mos
         acurcy=1.d-6 maxit=200 $end
 $trans  dirtrf=.t. $end
 $mrmp   mrpt=gmcpt rdvecs=.f. $end
 $gmcpt  nmofzc=5 nmodoc=9 nmoact=7 nelact=7 stsym(1)=A
         reftyp=ormas nspace=1 mstart(1)=15 mine(1)=7 maxe(1)=7
         kstate(1)=1,1,1,1
         wstate(1)=1,1,1,1
         iwgt=0 thrwgt=-1.0 krot=.f. kszdoe=.f. knospn=.f.
         thrde=-1.0 edshft=0.02 $end
 $statpt hssend=.t. $end
 $data
 AsH3+ 3 states calculation at AsH3 structure.
 C1
  AS         33.0   0.0000000000  -0.0000000000   0.0000000000
 H           1.0  -0.7325148768   1.2687529838   0.0000000000
 H           1.0  -0.7325148768  -1.2687529838   0.0000000000
 H           1.0   1.4650297535   0.0000000000   0.0000000000
 $end
--- OPTIMIZED ROHF     MO-S --- GENERATED AT Thu Nov 30 14:17:39 2023
E=    -2236.0689661144, E(NUC)=   36.3850013480
 $VEC   
 1  1-9.99999247E-01-8.13358154E-07 8.72443536E-06 6.72947160E-06-1.98975932E-05
 1  2-6.75729435E-06 0.00000000E+00 0.00000000E+00 0.00000000E+00 0.00000000E+00
 1  3 0.00000000E+00 0.00000000E+00 0.00000000E+00 0.00000000E+00 0.00000000E+00
 1  4 0.00000000E+00 0.00000000E+00 0.00000000E+00 0.00000000E+00 0.00000000E+00
 1  5 0.00000000E+00-2.01855693E-07-2.01855693E-07 4.03711386E-07 0.00000000E+00
 1  6 0.00000000E+00 0.00000000E+00 1.79130146E-07 1.79130146E-07-3.58260292E-07
 1  7 0.00000000E+00 0.00000000E+00 0.00000000E+00 8.51027283E-08 8.51027283E-08
 1  8-1.70205457E-07 0.00000000E+00 0.00000000E+00 0.00000000E+00 2.07647683E-07
 1  9 0.00000000E+00 0.00000000E+00 0.00000000E+00 0.00000000E+00-2.78588601E-07
 1 10 0.00000000E+00 0.00000000E+00 0.00000000E+00 0.00000000E+00-2.07599188E-08
 1 11-9.82972903E-07 1.17007733E-06 3.67148296E-08-6.35919502E-08 0.00000000E+00
 1 12-1.15596195E-07 2.00218483E-07 0.00000000E+00-2.59784003E-08 1.48957066E-07
 1 13-1.22978666E-07-1.74935467E-07 0.00000000E+00 0.00000000E+00-2.07599188E-08
 1 14-9.82972903E-07 1.17007733E-06 3.67148296E-08 6.35919502E-08 0.00000000E+00
 1 15-1.15596195E-07-2.00218483E-07 0.00000000E+00-2.59784003E-08 1.48957066E-07
 1 16-1.22978666E-07 1.74935467E-07 0.00000000E+00 0.00000000E+00-2.07599188E-08
 1 17-9.82972903E-07 1.17007733E-06-7.34296591E-08 0.00000000E+00 0.00000000E+00
 1 18 2.31192390E-07 0.00000000E+00 0.00000000E+00 2.36424800E-07-1.13446134E-07
 1 19-1.22978666E-07 0.00000000E+00 0.00000000E+00 0.00000000E+00
 2  1-4.52067509E-06-1.00012363E+00-2.22824234E-04-1.46324992E-04 5.04494288E-04
 2  2 1.75385256E-04 0.00000000E+00 0.00000000E+00 0.00000000E+00 0.00000000E+00
 2  3 0.00000000E+00 0.00000000E+00 0.00000000E+00 0.00000000E+00 0.00000000E+00
 2  4 0.00000000E+00 0.00000000E+00 0.00000000E+00 0.00000000E+00 0.00000000E+00
 2  5 0.00000000E+00-2.03406759E-06-2.03406759E-06 4.06813517E-06 0.00000000E+00
 2  6 0.00000000E+00 0.00000000E+00-5.92395511E-07-5.92395511E-07 1.18479102E-06
 2  7 0.00000000E+00 0.00000000E+00 0.00000000E+00-9.36271880E-07-9.36271880E-07
 2  8 1.87254376E-06 0.00000000E+00 0.00000000E+00 0.00000000E+00 2.64158112E-06
 2  9 0.00000000E+00 0.00000000E+00 0.00000000E+00 0.00000000E+00-3.54405297E-06
 2 10 0.00000000E+00 0.00000000E+00 0.00000000E+00 0.00000000E+00 1.84262060E-06
 2 11 1.59562667E-05-3.03853634E-05-1.24505555E-06 2.15649947E-06 0.00000000E+00
 2 12 2.59296908E-07-4.49115418E-07 0.00000000E+00 9.24589692E-07-4.07263190E-06
 2 13 3.14804221E-06 4.99722159E-06 0.00000000E+00 0.00000000E+00 1.84262060E-06
 2 14 1.59562667E-05-3.03853634E-05-1.24505555E-06-2.15649947E-06 0.00000000E+00
 2 15 2.59296908E-07 4.49115418E-07 0.00000000E+00 9.24589692E-07-4.07263190E-06
 2 16 3.14804221E-06-4.99722159E-06 0.00000000E+00 0.00000000E+00 1.84262060E-06
 2 17 1.59562667E-05-3.03853634E-05 2.49011110E-06 0.00000000E+00 0.00000000E+00
 2 18-5.18593815E-07 0.00000000E+00 0.00000000E+00-6.57124269E-06 3.42320049E-06
 2 19 3.14804221E-06 0.00000000E+00 0.00000000E+00 0.00000000E+00
 3  1 0.00000000E+00 0.00000000E+00 0.00000000E+00 0.00000000E+00 0.00000000E+00
 3  2 0.00000000E+00 0.00000000E+00 0.00000000E+00 1.00002384E+00 0.00000000E+00
 3  3 0.00000000E+00-3.72026056E-05 0.00000000E+00 0.00000000E+00-1.17555831E-05
 3  4 0.00000000E+00 0.00000000E+00-4.21092479E-04 0.00000000E+00 0.00000000E+00
 3  5-6.29125763E-05 0.00000000E+00 0.00000000E+00 0.00000000E+00 0.00000000E+00
 3  6 0.00000000E+00 0.00000000E+00 0.00000000E+00 0.00000000E+00 0.00000000E+00
 3  7 0.00000000E+00 0.00000000E+00 0.00000000E+00 0.00000000E+00 0.00000000E+00
 3  8 0.00000000E+00 0.00000000E+00 0.00000000E+00 0.00000000E+00 0.00000000E+00
 3  9 0.00000000E+00 3.04984984E-07 0.00000000E+00-2.04590147E-07 0.00000000E+00
 3 10-2.04590147E-07 0.00000000E+00 0.00000000E+00 0.00000000E+00 0.00000000E+00
 3 11 0.00000000E+00 0.00000000E+00 0.00000000E+00 0.00000000E+00 9.53462209E-07
 3 12 0.00000000E+00 0.00000000E+00-4.38099763E-06 0.00000000E+00 0.00000000E+00
 3 13 0.00000000E+00 0.00000000E+00 2.93314036E-06-5.08034813E-06 0.00000000E+00
 3 14 0.00000000E+00 0.00000000E+00 0.00000000E+00 0.00000000E+00 9.53462209E-07
 3 15 0.00000000E+00 0.00000000E+00-4.38099763E-06 0.00000000E+00 0.00000000E+00
 3 16 0.00000000E+00 0.00000000E+00 2.93314036E-06 5.08034813E-06 0.00000000E+00
 3 17 0.00000000E+00 0.00000000E+00 0.00000000E+00 0.00000000E+00 9.53462209E-07
 3 18 0.00000000E+00 0.00000000E+00-4.38099763E-06 0.00000000E+00 0.00000000E+00
 3 19 0.00000000E+00 0.00000000E+00-5.86628072E-06 0.00000000E+00
 4  1 0.00000000E+00 0.00000000E+00 0.00000000E+00 0.00000000E+00 0.00000000E+00
 4  2 0.00000000E+00-1.00002550E+00 0.00000000E+00 0.00000000E+00-9.81760160E-06
 4  3 0.00000000E+00 0.00000000E+00 7.90451718E-05 0.00000000E+00 0.00000000E+00
 4  4 5.05937111E-04 0.00000000E+00 0.00000000E+00 9.04940596E-05 0.00000000E+00
 4  5 0.00000000E+00 1.72336377E-09-1.72336377E-09 0.00000000E+00 0.00000000E+00
 4  6 0.00000000E+00 0.00000000E+00 5.71356066E-05-5.71356066E-05 0.00000000E+00
 4  7 0.00000000E+00 0.00000000E+00 0.00000000E+00 1.41825538E-05-1.41825538E-05
 4  8 0.00000000E+00 0.00000000E+00 0.00000000E+00 0.00000000E+00 1.26007339E-05
 4  9 0.00000000E+00 0.00000000E+00 0.00000000E+00 0.00000000E+00 5.63521952E-06
 4 10 0.00000000E+00-2.25408781E-05 0.00000000E+00 0.00000000E+00-6.98368290E-06
 4 11 3.35305645E-05 2.35725251E-05 4.73034125E-06-7.09478449E-06 0.00000000E+00
 4 12 1.88013982E-05-3.00593109E-05 0.00000000E+00-4.90631386E-06 1.60158783E-05
 4 13-1.11095644E-05-1.39566972E-05 0.00000000E+00 0.00000000E+00-6.98368290E-06
 4 14 3.35305645E-05 2.35725251E-05 4.73034125E-06 7.09478449E-06 0.00000000E+00
 4 15 1.88013982E-05 3.00593109E-05 0.00000000E+00-4.90631386E-06 1.60158783E-05
 4 16-1.11095644E-05 1.39566972E-05 0.00000000E+00 0.00000000E+00 1.39673658E-05
 4 17-6.70611289E-05-4.71450503E-05 1.70188685E-05 0.00000000E+00 0.00000000E+00
 4 18 7.08656519E-05 0.00000000E+00 0.00000000E+00-4.25057063E-05 2.02865774E-05
 4 19 2.22191289E-05 0.00000000E+00 0.00000000E+00 0.00000000E+00
 5  1 0.00000000E+00 0.00000000E+00 0.00000000E+00 0.00000000E+00 0.00000000E+00
 5  2 0.00000000E+00 0.00000000E+00-1.00002550E+00 0.00000000E+00 0.00000000E+00
 5  3-9.81760160E-06 0.00000000E+00 0.00000000E+00 7.90451718E-05 0.00000000E+00
 5  4 0.00000000E+00 5.05937111E-04 0.00000000E+00 0.00000000E+00 9.04940596E-05
 5  5 0.00000000E+00 0.00000000E+00 0.00000000E+00 0.00000000E+00-1.98996912E-09
 5  6 0.00000000E+00 0.00000000E+00 0.00000000E+00 0.00000000E+00 0.00000000E+00
 5  7-6.59745156E-05 0.00000000E+00 0.00000000E+00 0.00000000E+00 0.00000000E+00
 5  8 0.00000000E+00-1.63766025E-05 0.00000000E+00 0.00000000E+00 0.00000000E+00
 5  9 1.26007339E-05 0.00000000E+00 5.63521952E-06 0.00000000E+00 0.00000000E+00
 5 10 0.00000000E+00 0.00000000E+00-2.25408781E-05 0.00000000E+00 1.20960936E-05
 5 11-5.80766413E-05-4.08288112E-05-7.09478449E-06 1.29226927E-05 0.00000000E+00
 5 12-3.00593109E-05 5.35109006E-05 0.00000000E+00 2.46568929E-06-2.17080193E-05
 5 13 1.92423300E-05 2.81952390E-05 0.00000000E+00 0.00000000E+00-1.20960936E-05
 5 14 5.80766413E-05 4.08288112E-05 7.09478449E-06 1.29226927E-05 0.00000000E+00
 5 15 3.00593109E-05 5.35109006E-05 0.00000000E+00-2.46568929E-06 2.17080193E-05
 5 16-1.92423300E-05 2.81952390E-05 0.00000000E+00 0.00000000E+00 0.00000000E+00
 5 17 0.00000000E+00 0.00000000E+00 0.00000000E+00 6.34165519E-07 0.00000000E+00
 5 18 0.00000000E+00 1.44664692E-06 0.00000000E+00 0.00000000E+00 0.00000000E+00
 5 19 0.00000000E+00 4.02153039E-06 0.00000000E+00 0.00000000E+00
 6  1 1.08989919E-04 7.92604276E-04-9.74664043E-01 2.16126523E-03-3.68380155E-02
 6  2-4.27223679E-03 0.00000000E+00 0.00000000E+00 0.00000000E+00 0.00000000E+00
 6  3 0.00000000E+00 0.00000000E+00 0.00000000E+00 0.00000000E+00 0.00000000E+00
 6  4 0.00000000E+00 0.00000000E+00 0.00000000E+00 0.00000000E+00 0.00000000E+00
 6  5 0.00000000E+00-5.48200792E-04-5.48200792E-04 1.09640158E-03 0.00000000E+00
 6  6 0.00000000E+00 0.00000000E+00-5.36385438E-05-5.36385438E-05 1.07277088E-04
 6  7 0.00000000E+00 0.00000000E+00 0.00000000E+00 7.94503802E-05 7.94503802E-05
 6  8-1.58900760E-04 0.00000000E+00 0.00000000E+00 0.00000000E+00 2.22767356E-05
 6  9 0.00000000E+00 0.00000000E+00 0.00000000E+00 0.00000000E+00-2.98873771E-05
 6 10 0.00000000E+00 0.00000000E+00 0.00000000E+00 0.00000000E+00-6.35897171E-05
 6 11-5.61694139E-04 6.45807213E-04-1.84694993E-06 3.19901111E-06 0.00000000E+00
 6 12-3.37327607E-05 5.84268555E-05 0.00000000E+00 6.36414927E-06-2.12608617E-05
 6 13 1.48967124E-05 2.76250109E-05 0.00000000E+00 0.00000000E+00-6.35897171E-05
 6 14-5.61694139E-04 6.45807213E-04-1.84694993E-06-3.19901111E-06 0.00000000E+00
 6 15-3.37327607E-05-5.84268555E-05 0.00000000E+00 6.36414927E-06-2.12608617E-05
 6 16 1.48967124E-05-2.76250109E-05 0.00000000E+00 0.00000000E+00-6.35897171E-05
 6 17-5.61694139E-04 6.45807213E-04 3.69389985E-06 0.00000000E+00 0.00000000E+00
 6 18 6.74655215E-05 0.00000000E+00 0.00000000E+00-3.50733671E-05 2.01766547E-05
 6 19 1.48967124E-05 0.00000000E+00 0.00000000E+00 0.00000000E+00
 7  1 0.00000000E+00 0.00000000E+00 0.00000000E+00 0.00000000E+00 0.00000000E+00
 7  2 0.00000000E+00 1.00513141E-04 0.00000000E+00 0.00000000E+00-9.74500719E-01
 7  3 0.00000000E+00 0.00000000E+00 1.44379026E-03 0.00000000E+00 0.00000000E+00
 7  4-4.74125785E-02 0.00000000E+00 0.00000000E+00-2.11632171E-03 0.00000000E+00
 7  5 0.00000000E+00-7.63097094E-04 7.63097094E-04 0.00000000E+00 0.00000000E+00
 7  6 0.00000000E+00 0.00000000E+00 5.83207749E-04-5.83207749E-04 0.00000000E+00
 7  7 0.00000000E+00 0.00000000E+00 0.00000000E+00 1.65385710E-04-1.65385710E-04
 7  8 0.00000000E+00 0.00000000E+00 0.00000000E+00 0.00000000E+00-7.24665456E-05
 7  9 0.00000000E+00 0.00000000E+00 0.00000000E+00 0.00000000E+00-3.24080244E-05
 7 10 0.00000000E+00 1.29632098E-04 0.00000000E+00 0.00000000E+00 1.47529178E-04
 7 11 9.28761723E-04-4.21145749E-04-9.19330519E-06-2.68682123E-05 0.00000000E+00
 7 12 5.25053932E-05-2.92736765E-04 0.00000000E+00 7.63884158E-06 4.03676412E-05
 7 13-4.80064827E-05-1.22301548E-04 0.00000000E+00 0.00000000E+00 1.47529178E-04
 7 14 9.28761723E-04-4.21145749E-04-9.19330519E-06 2.68682123E-05 0.00000000E+00
 7 15 5.25053932E-05 2.92736765E-04 0.00000000E+00 7.63884158E-06 4.03676412E-05
 7 16-4.80064827E-05 1.22301548E-04 0.00000000E+00 0.00000000E+00-2.95058356E-04
 7 17-1.85752345E-03 8.42291498E-04 3.73438036E-05 0.00000000E+00 0.00000000E+00
 7 18 5.59540343E-04 0.00000000E+00 0.00000000E+00-2.47823205E-04 1.51810240E-04
 7 19 9.60129655E-05 0.00000000E+00 0.00000000E+00 0.00000000E+00
 8  1 0.00000000E+00 0.00000000E+00 0.00000000E+00 0.00000000E+00 0.00000000E+00
 8  2 0.00000000E+00 0.00000000E+00 1.00513141E-04 0.00000000E+00 0.00000000E+00
 8  3-9.74500719E-01 0.00000000E+00 0.00000000E+00 1.44379026E-03 0.00000000E+00
 8  4 0.00000000E+00-4.74125785E-02 0.00000000E+00 0.00000000E+00-2.11632171E-03
 8  5 0.00000000E+00 0.00000000E+00 0.00000000E+00 0.00000000E+00 8.81148625E-04
 8  6 0.00000000E+00 0.00000000E+00 0.00000000E+00 0.00000000E+00 0.00000000E+00
 8  7-6.73430302E-04 0.00000000E+00 0.00000000E+00 0.00000000E+00 0.00000000E+00
 8  8 0.00000000E+00-1.90970969E-04 0.00000000E+00 0.00000000E+00 0.00000000E+00
 8  9-7.24665456E-05 0.00000000E+00-3.24080244E-05 0.00000000E+00 0.00000000E+00
 8 10 0.00000000E+00 0.00000000E+00 1.29632098E-04 0.00000000E+00-2.55528032E-04
 8 11-1.60866249E-03 7.29445835E-04-2.68682123E-05 2.18314340E-05 0.00000000E+00
 8 12-2.92736765E-04 3.90528693E-04 0.00000000E+00 6.43414143E-05-1.47491082E-04
 8 13 8.31496672E-05 1.60117645E-04 0.00000000E+00 0.00000000E+00 2.55528032E-04
 8 14 1.60866249E-03-7.29445835E-04 2.68682123E-05 2.18314340E-05 0.00000000E+00
 8 15 2.92736765E-04 3.90528693E-04 0.00000000E+00-6.43414143E-05 1.47491082E-04
 8 16-8.31496672E-05 1.60117645E-04 0.00000000E+00 0.00000000E+00 0.00000000E+00
 8 17 0.00000000E+00 0.00000000E+00 0.00000000E+00-2.47056748E-05 0.00000000E+00
 8 18 0.00000000E+00-1.16506257E-04 0.00000000E+00 0.00000000E+00 0.00000000E+00
 8 19 0.00000000E+00-5.17148507E-05 0.00000000E+00 0.00000000E+00
 9  1 0.00000000E+00 0.00000000E+00 0.00000000E+00 0.00000000E+00 0.00000000E+00
 9  2 0.00000000E+00 0.00000000E+00 0.00000000E+00 1.38797843E-04 0.00000000E+00
 9  3 0.00000000E+00 9.76490085E-01 0.00000000E+00 0.00000000E+00 6.09065225E-04
 9  4 0.00000000E+00 0.00000000E+00 4.52755541E-02 0.00000000E+00 0.00000000E+00
 9  5 1.34082875E-03 0.00000000E+00 0.00000000E+00 0.00000000E+00 0.00000000E+00
 9  6 0.00000000E+00 0.00000000E+00 0.00000000E+00 0.00000000E+00 0.00000000E+00
 9  7 0.00000000E+00 0.00000000E+00 0.00000000E+00 0.00000000E+00 0.00000000E+00
 9  8 0.00000000E+00 0.00000000E+00 0.00000000E+00 0.00000000E+00 0.00000000E+00
 9  9 0.00000000E+00-2.98893505E-04 0.00000000E+00 2.00503859E-04 0.00000000E+00
 9 10 2.00503859E-04 0.00000000E+00 0.00000000E+00 0.00000000E+00 0.00000000E+00
 9 11 0.00000000E+00 0.00000000E+00 0.00000000E+00 0.00000000E+00 1.24982518E-05
 9 12 0.00000000E+00 0.00000000E+00 8.02506655E-05 0.00000000E+00 0.00000000E+00
 9 13 0.00000000E+00 0.00000000E+00-1.99586886E-05 3.45694627E-05 0.00000000E+00
 9 14 0.00000000E+00 0.00000000E+00 0.00000000E+00 0.00000000E+00 1.24982518E-05
 9 15 0.00000000E+00 0.00000000E+00 8.02506655E-05 0.00000000E+00 0.00000000E+00
 9 16 0.00000000E+00 0.00000000E+00-1.99586886E-05-3.45694627E-05 0.00000000E+00
 9 17 0.00000000E+00 0.00000000E+00 0.00000000E+00 0.00000000E+00 1.24982518E-05
 9 18 0.00000000E+00 0.00000000E+00 8.02506655E-05 0.00000000E+00 0.00000000E+00
 9 19 0.00000000E+00 0.00000000E+00 3.99173772E-05 0.00000000E+00
10  1 0.00000000E+00 0.00000000E+00 0.00000000E+00 0.00000000E+00 0.00000000E+00
10  2 0.00000000E+00 2.37962227E-04 0.00000000E+00 0.00000000E+00 1.05794804E-03
10  3 0.00000000E+00 0.00000000E+00 3.45809600E-03 0.00000000E+00 0.00000000E+00
10  4-3.01552266E-03 0.00000000E+00 0.00000000E+00-2.98789126E-03 0.00000000E+00
10  5 0.00000000E+00 8.36945355E-01-8.36945355E-01 0.00000000E+00 0.00000000E+00
10  6 0.00000000E+00 0.00000000E+00 7.31833588E-02-7.31833588E-02 0.00000000E+00
10  7 0.00000000E+00 0.00000000E+00 0.00000000E+00 8.99442159E-04-8.99442159E-04
10  8 0.00000000E+00 0.00000000E+00 0.00000000E+00 0.00000000E+00 3.12759579E-04
10  9 0.00000000E+00 0.00000000E+00 0.00000000E+00 0.00000000E+00 1.39870336E-04
10 10 0.00000000E+00-5.59481343E-04 0.00000000E+00 0.00000000E+00-2.93860501E-03
10 11-2.14254647E-03-1.09726176E-03-7.60684770E-04 5.00025421E-04 0.00000000E+00
10 12-9.76824701E-04-3.64055993E-04 0.00000000E+00-1.43761551E-04-1.23974681E-04
10 13 2.67736233E-04 5.62739257E-04 0.00000000E+00 0.00000000E+00-2.93860501E-03
10 14-2.14254647E-03-1.09726176E-03-7.60684770E-04-5.00025421E-04 0.00000000E+00
10 15-9.76824701E-04 3.64055993E-04 0.00000000E+00-1.43761551E-04-1.23974681E-04
10 16 2.67736233E-04-5.62739257E-04 0.00000000E+00 0.00000000E+00 5.87721001E-03
10 17 4.28509293E-03 2.19452352E-03-1.62675420E-03 0.00000000E+00 0.00000000E+00
10 18-3.46261224E-04 0.00000000E+00 0.00000000E+00 1.10195168E-03-5.66479217E-04
10 19-5.35472466E-04 0.00000000E+00 0.00000000E+00 0.00000000E+00
11  1 0.00000000E+00 0.00000000E+00 0.00000000E+00 0.00000000E+00 0.00000000E+00
11  2 0.00000000E+00 0.00000000E+00 2.37962227E-04 0.00000000E+00 0.00000000E+00
11  3 1.05794804E-03 0.00000000E+00 0.00000000E+00 3.45809600E-03 0.00000000E+00
11  4 0.00000000E+00-3.01552266E-03 0.00000000E+00 0.00000000E+00-2.98789126E-03
11  5 0.00000000E+00 0.00000000E+00 0.00000000E+00 0.00000000E+00-9.66421252E-01
11  6 0.00000000E+00 0.00000000E+00 0.00000000E+00 0.00000000E+00 0.00000000E+00
11  7-8.45048638E-02 0.00000000E+00 0.00000000E+00 0.00000000E+00 0.00000000E+00
11  8 0.00000000E+00-1.03858635E-03 0.00000000E+00 0.00000000E+00 0.00000000E+00
11  9 3.12759579E-04 0.00000000E+00 1.39870336E-04 0.00000000E+00 0.00000000E+00
11 10 0.00000000E+00 0.00000000E+00-5.59481343E-04 0.00000000E+00 5.08981317E-03
11 11 3.71099934E-03 1.90051312E-03 5.00025421E-04-1.33806439E-03 0.00000000E+00
11 12-3.64055993E-04-5.56449050E-04 0.00000000E+00-2.55480113E-04 7.19212871E-04
11 13-4.63732758E-04-6.38371368E-04 0.00000000E+00 0.00000000E+00-5.08981317E-03
11 14-3.71099934E-03-1.90051312E-03-5.00025421E-04-1.33806439E-03 0.00000000E+00
11 15 3.64055993E-04-5.56449050E-04 0.00000000E+00 2.55480113E-04-7.19212871E-04
11 16 4.63732758E-04-6.38371368E-04 0.00000000E+00 0.00000000E+00 0.00000000E+00
11 17 0.00000000E+00 0.00000000E+00 0.00000000E+00-4.71994959E-04 0.00000000E+00
11 18 0.00000000E+00-1.18701253E-03 0.00000000E+00 0.00000000E+00 0.00000000E+00
11 19 0.00000000E+00 3.36321616E-04 0.00000000E+00 0.00000000E+00
12  1 0.00000000E+00 0.00000000E+00 0.00000000E+00 0.00000000E+00 0.00000000E+00
12  2 0.00000000E+00 0.00000000E+00 0.00000000E+00 0.00000000E+00 0.00000000E+00
12  3 0.00000000E+00 0.00000000E+00 0.00000000E+00 0.00000000E+00 0.00000000E+00
12  4 0.00000000E+00 0.00000000E+00 0.00000000E+00 0.00000000E+00 0.00000000E+00
12  5 0.00000000E+00 0.00000000E+00 0.00000000E+00 0.00000000E+00 0.00000000E+00
12  6 0.00000000E+00 9.68221385E-01 0.00000000E+00 0.00000000E+00 0.00000000E+00
12  7 0.00000000E+00 0.00000000E+00 8.19991868E-02 0.00000000E+00 0.00000000E+00
12  8 0.00000000E+00 0.00000000E+00 0.00000000E+00 2.30386292E-03 0.00000000E+00
12  9 0.00000000E+00 0.00000000E+00 0.00000000E+00 0.00000000E+00 0.00000000E+00
12 10 0.00000000E+00 0.00000000E+00 0.00000000E+00-9.86681242E-05 0.00000000E+00
12 11 0.00000000E+00 0.00000000E+00 0.00000000E+00 0.00000000E+00 4.11808589E-04
12 12 0.00000000E+00 0.00000000E+00 1.25250592E-03 0.00000000E+00 0.00000000E+00
12 13 0.00000000E+00 0.00000000E+00 2.77951779E-04-3.74597549E-04 0.00000000E+00
12 14 0.00000000E+00 0.00000000E+00 0.00000000E+00 0.00000000E+00-4.11808589E-04
12 15 0.00000000E+00 0.00000000E+00-1.25250592E-03 0.00000000E+00 0.00000000E+00
12 16 0.00000000E+00 0.00000000E+00-2.77951779E-04-3.74597549E-04 0.00000000E+00
12 17 0.00000000E+00 0.00000000E+00 0.00000000E+00 0.00000000E+00 0.00000000E+00
12 18 0.00000000E+00 0.00000000E+00 0.00000000E+00 0.00000000E+00 0.00000000E+00
12 19 0.00000000E+00 0.00000000E+00 0.00000000E+00 1.06829055E-04
13  1 0.00000000E+00 0.00000000E+00 0.00000000E+00 0.00000000E+00 0.00000000E+00
13  2 0.00000000E+00 0.00000000E+00 0.00000000E+00 0.00000000E+00 0.00000000E+00
13  3 0.00000000E+00 0.00000000E+00 0.00000000E+00 0.00000000E+00 0.00000000E+00
13  4 0.00000000E+00 0.00000000E+00 0.00000000E+00 0.00000000E+00 0.00000000E+00
13  5 0.00000000E+00 0.00000000E+00 0.00000000E+00 0.00000000E+00 0.00000000E+00
13  6-9.68221385E-01 0.00000000E+00 0.00000000E+00 0.00000000E+00 0.00000000E+00
13  7 0.00000000E+00-8.19991868E-02 0.00000000E+00 0.00000000E+00 0.00000000E+00
13  8 0.00000000E+00 0.00000000E+00-2.30386292E-03 0.00000000E+00 0.00000000E+00
13  9 0.00000000E+00 0.00000000E+00 0.00000000E+00-8.54491021E-05 0.00000000E+00
13 10 8.54491021E-05 0.00000000E+00 0.00000000E+00 0.00000000E+00 0.00000000E+00
13 11 0.00000000E+00 0.00000000E+00 0.00000000E+00 0.00000000E+00 2.37757799E-04
13 12 0.00000000E+00 0.00000000E+00 7.23134629E-04 0.00000000E+00 0.00000000E+00
13 13 0.00000000E+00 0.00000000E+00 5.36464796E-05-2.77951779E-04 0.00000000E+00
13 14 0.00000000E+00 0.00000000E+00 0.00000000E+00 0.00000000E+00 2.37757799E-04
13 15 0.00000000E+00 0.00000000E+00 7.23134629E-04 0.00000000E+00 0.00000000E+00
13 16 0.00000000E+00 0.00000000E+00 5.36464796E-05 2.77951779E-04 0.00000000E+00
13 17 0.00000000E+00 0.00000000E+00 0.00000000E+00 0.00000000E+00-4.75515599E-04
13 18 0.00000000E+00 0.00000000E+00-1.44626926E-03 0.00000000E+00 0.00000000E+00
13 19 0.00000000E+00 0.00000000E+00 5.35073083E-04 0.00000000E+00
14  1-2.71133709E-05-1.73443156E-04 7.14734394E-04-3.28028596E-03-1.18377711E-03
14  2 5.20365219E-03 0.00000000E+00 0.00000000E+00 0.00000000E+00 0.00000000E+00
14  3 0.00000000E+00 0.00000000E+00 0.00000000E+00 0.00000000E+00 0.00000000E+00
14  4 0.00000000E+00 0.00000000E+00 0.00000000E+00 0.00000000E+00 0.00000000E+00
14  5 0.00000000E+00-4.83742265E-01-4.83742265E-01 9.67484531E-01 0.00000000E+00
14  6 0.00000000E+00 0.00000000E+00-4.11397864E-02-4.11397864E-02 8.22795728E-02
14  7 0.00000000E+00 0.00000000E+00 0.00000000E+00-1.31332724E-03-1.31332724E-03
14  8 2.62665448E-03 0.00000000E+00 0.00000000E+00 0.00000000E+00-6.94834222E-04
14  9 0.00000000E+00 0.00000000E+00 0.00000000E+00 0.00000000E+00 9.32217933E-04
14 10 0.00000000E+00 0.00000000E+00 0.00000000E+00 0.00000000E+00-3.55570677E-03
14 11-2.99632419E-03-1.12782892E-03-4.95273223E-04 8.57838385E-04 0.00000000E+00
14 12-2.06502085E-04 3.57672102E-04 0.00000000E+00-1.55617824E-05-4.48172132E-04
14 13 4.63733915E-04 4.32610350E-04 0.00000000E+00 0.00000000E+00-3.55570677E-03
14 14-2.99632419E-03-1.12782892E-03-4.95273223E-04-8.57838385E-04 0.00000000E+00
14 15-2.06502085E-04-3.57672102E-04 0.00000000E+00-1.55617824E-05-4.48172132E-04
14 16 4.63733915E-04-4.32610350E-04 0.00000000E+00 0.00000000E+00-3.55570677E-03
14 17-2.99632419E-03-1.12782892E-03 9.90546445E-04 0.00000000E+00 0.00000000E+00
14 18 4.13004169E-04 0.00000000E+00 0.00000000E+00-6.64477307E-04 2.00743393E-04
14 19 4.63733915E-04 0.00000000E+00 0.00000000E+00 0.00000000E+00
15  1 9.12237858E-05 9.30591319E-04 1.35373938E-02-5.03005462E-01-2.02934487E-01
15  2-1.66709148E-01 0.00000000E+00 0.00000000E+00 0.00000000E+00 0.00000000E+00
15  3 0.00000000E+00 0.00000000E+00 0.00000000E+00 0.00000000E+00 0.00000000E+00
15  4 0.00000000E+00 0.00000000E+00 0.00000000E+00 0.00000000E+00 0.00000000E+00
15  5 0.00000000E+00 1.77313359E-02 1.77313359E-02-3.54626719E-02 0.00000000E+00
15  6 0.00000000E+00 0.00000000E+00-9.45156080E-03-9.45156080E-03 1.89031216E-02
15  7 0.00000000E+00 0.00000000E+00 0.00000000E+00-3.96259523E-03-3.96259523E-03
15  8 7.92519046E-03 0.00000000E+00 0.00000000E+00 0.00000000E+00-1.52380164E-02
15  9 0.00000000E+00 0.00000000E+00 0.00000000E+00 0.00000000E+00 2.04439443E-02
15 10 0.00000000E+00 0.00000000E+00 0.00000000E+00 0.00000000E+00-7.57606368E-02
15 11-1.13252612E-01-2.53916948E-02-3.26549639E-03 5.65600567E-03 0.00000000E+00
15 12-5.51358733E-03 9.54981338E-03 0.00000000E+00-4.29146716E-05-1.40157307E-03
15 13 1.44448774E-03 1.35865839E-03 0.00000000E+00 0.00000000E+00-7.57606368E-02
15 14-1.13252612E-01-2.53916948E-02-3.26549639E-03-5.65600567E-03 0.00000000E+00
15 15-5.51358733E-03-9.54981338E-03 0.00000000E+00-4.29146716E-05-1.40157307E-03
15 16 1.44448774E-03-1.35865839E-03 0.00000000E+00 0.00000000E+00-7.57606368E-02
15 17-1.13252612E-01-2.53916948E-02 6.53099279E-03 0.00000000E+00 0.00000000E+00
15 18 1.10271747E-02 0.00000000E+00 0.00000000E+00-2.08090226E-03 6.36414525E-04
15 19 1.44448774E-03 0.00000000E+00 0.00000000E+00 0.00000000E+00
16  1 0.00000000E+00 0.00000000E+00 0.00000000E+00 0.00000000E+00 0.00000000E+00
16  2 0.00000000E+00 3.94741379E-03 0.00000000E+00 0.00000000E+00 5.32904893E-02
16  3 0.00000000E+00 0.00000000E+00-3.30321316E-01 0.00000000E+00 0.00000000E+00
16  4-1.49674513E-01 0.00000000E+00 0.00000000E+00-7.82121998E-02 0.00000000E+00
16  5 0.00000000E+00 5.68888262E-02-5.68888262E-02 0.00000000E+00 0.00000000E+00
16  6 0.00000000E+00 0.00000000E+00-3.23154455E-02 3.23154455E-02 0.00000000E+00
16  7 0.00000000E+00 0.00000000E+00 0.00000000E+00-3.23979416E-02 3.23979416E-02
16  8 0.00000000E+00 0.00000000E+00 0.00000000E+00 0.00000000E+00-9.02323319E-03
16  9 0.00000000E+00 0.00000000E+00 0.00000000E+00 0.00000000E+00-4.03531256E-03
16 10 0.00000000E+00 1.61412502E-02 0.00000000E+00 0.00000000E+00 7.82879336E-02
16 11 1.35358738E-01 6.91019756E-02 1.21378794E-03-5.09241100E-03 0.00000000E+00
16 12 1.19174809E-03-1.13678188E-02 0.00000000E+00-1.15822839E-03 2.19918352E-03
16 13-1.04095514E-03-6.80198350E-04 0.00000000E+00 0.00000000E+00 7.82879336E-02
16 14 1.35358738E-01 6.91019756E-02 1.21378794E-03 5.09241100E-03 0.00000000E+00
16 15 1.19174809E-03 1.13678188E-02 0.00000000E+00-1.15822839E-03 2.19918352E-03
16 16-1.04095514E-03 6.80198350E-04 0.00000000E+00 0.00000000E+00-1.56575867E-01
16 17-2.70717475E-01-1.38203951E-01 1.00341025E-02 0.00000000E+00 0.00000000E+00
16 18 2.08813879E-02 0.00000000E+00 0.00000000E+00-3.73995862E-03 1.65804834E-03
16 19 2.08191027E-03 0.00000000E+00 0.00000000E+00 0.00000000E+00
17  1 0.00000000E+00 0.00000000E+00 0.00000000E+00 0.00000000E+00 0.00000000E+00
17  2 0.00000000E+00 0.00000000E+00 3.94741379E-03 0.00000000E+00 0.00000000E+00
17  3 5.32904893E-02 0.00000000E+00 0.00000000E+00-3.30321316E-01 0.00000000E+00
17  4 0.00000000E+00-1.49674513E-01 0.00000000E+00 0.00000000E+00-7.82121998E-02
17  5 0.00000000E+00 0.00000000E+00 0.00000000E+00 0.00000000E+00-6.56895582E-02
17  6 0.00000000E+00 0.00000000E+00 0.00000000E+00 0.00000000E+00 0.00000000E+00
17  7 3.73146623E-02 0.00000000E+00 0.00000000E+00 0.00000000E+00 0.00000000E+00
17  8 0.00000000E+00 3.74099206E-02 0.00000000E+00 0.00000000E+00 0.00000000E+00
17  9-9.02323319E-03 0.00000000E+00-4.03531256E-03 0.00000000E+00 0.00000000E+00
17 10 0.00000000E+00 0.00000000E+00 1.61412502E-02 0.00000000E+00-1.35598679E-01
17 11-2.34448211E-01-1.19688133E-01-5.09241100E-03 7.09399767E-03 0.00000000E+00
17 12-1.13678188E-02 1.43181746E-02 0.00000000E+00-3.12424542E-04-1.49056264E-03
17 13 1.80298719E-03 2.72382807E-03 0.00000000E+00 0.00000000E+00 1.35598679E-01
17 14 2.34448211E-01 1.19688133E-01 5.09241100E-03 7.09399767E-03 0.00000000E+00
17 15 1.13678188E-02 1.43181746E-02 0.00000000E+00 3.12424542E-04 1.49056264E-03
17 16-1.80298719E-03 2.72382807E-03 0.00000000E+00 0.00000000E+00 0.00000000E+00
17 17 0.00000000E+00 0.00000000E+00 0.00000000E+00-1.72631692E-03 0.00000000E+00
17 18 0.00000000E+00-5.37146517E-03 0.00000000E+00 0.00000000E+00 0.00000000E+00
17 19 0.00000000E+00 1.54568997E-03 0.00000000E+00 0.00000000E+00
18  1 0.00000000E+00 0.00000000E+00 0.00000000E+00 0.00000000E+00 0.00000000E+00
18  2 0.00000000E+00 0.00000000E+00 0.00000000E+00-2.63999069E-03 0.00000000E+00
18  3 0.00000000E+00-2.95497644E-02 0.00000000E+00 0.00000000E+00 4.93597355E-01
18  4 0.00000000E+00 0.00000000E+00 2.03947077E-01 0.00000000E+00 0.00000000E+00
18  5 4.44004047E-01 0.00000000E+00 0.00000000E+00 0.00000000E+00 0.00000000E+00
18  6 0.00000000E+00 0.00000000E+00 0.00000000E+00 0.00000000E+00 0.00000000E+00
18  7 0.00000000E+00 0.00000000E+00 0.00000000E+00 0.00000000E+00 0.00000000E+00
18  8 0.00000000E+00 0.00000000E+00 0.00000000E+00 0.00000000E+00 0.00000000E+00
18  9 0.00000000E+00-1.21315107E-02 0.00000000E+00 8.13806478E-03 0.00000000E+00
18 10 8.13806478E-03 0.00000000E+00 0.00000000E+00 0.00000000E+00 0.00000000E+00
18 11 0.00000000E+00 0.00000000E+00 0.00000000E+00 0.00000000E+00 4.49582695E-03
18 12 0.00000000E+00 0.00000000E+00 2.30888943E-02 0.00000000E+00 0.00000000E+00
18 13 0.00000000E+00 0.00000000E+00 1.20460793E-03-2.08644214E-03 0.00000000E+00
18 14 0.00000000E+00 0.00000000E+00 0.00000000E+00 0.00000000E+00 4.49582695E-03
18 15 0.00000000E+00 0.00000000E+00 2.30888943E-02 0.00000000E+00 0.00000000E+00
18 16 0.00000000E+00 0.00000000E+00 1.20460793E-03 2.08644214E-03 0.00000000E+00
18 17 0.00000000E+00 0.00000000E+00 0.00000000E+00 0.00000000E+00 4.49582695E-03
18 18 0.00000000E+00 0.00000000E+00 2.30888943E-02 0.00000000E+00 0.00000000E+00
18 19 0.00000000E+00 0.00000000E+00-2.40921586E-03 0.00000000E+00
19  1 1.14674680E-05 5.30912545E-04 1.55577591E-02 3.68121558E-01 1.15080382E-01
19  2 2.15011742E+00 0.00000000E+00 0.00000000E+00 0.00000000E+00 0.00000000E+00
19  3 0.00000000E+00 0.00000000E+00 0.00000000E+00 0.00000000E+00 0.00000000E+00
19  4 0.00000000E+00 0.00000000E+00 0.00000000E+00 0.00000000E+00 0.00000000E+00
19  5 0.00000000E+00 3.06553270E-02 3.06553270E-02-6.13106540E-02 0.00000000E+00
19  6 0.00000000E+00 0.00000000E+00-1.67891276E-02-1.67891276E-02 3.35782552E-02
19  7 0.00000000E+00 0.00000000E+00 0.00000000E+00 6.71898917E-03 6.71898917E-03
19  8-1.34379783E-02 0.00000000E+00 0.00000000E+00 0.00000000E+00-1.90414424E-04
19  9 0.00000000E+00 0.00000000E+00 0.00000000E+00 0.00000000E+00 2.55467758E-04
19 10 0.00000000E+00 0.00000000E+00 0.00000000E+00 0.00000000E+00-7.67112454E-02
19 11-1.11098457E-01-1.11261558E+00 5.53590615E-03-9.58847072E-03 0.00000000E+00
19 12-2.03291939E-02 3.52111966E-02 0.00000000E+00-6.15929167E-04-2.30692939E-03
19 13 2.92285855E-03 1.69100022E-03 0.00000000E+00 0.00000000E+00-7.67112454E-02