 !Step 4: Calculation using REFDET
 $system kdiag=3 mwords=250 memddi=8000 parall=.t. $end
 $contrl runtyp=energy ispher=1 $end
 $contrl icut=9 itol=20 inttyp=rysquad qmttol=1.0d-05 nosym=1 $end
 $scf    npunch=2 conv=1.0d-06 dirscf=.t. diis=.t. soscf=.f. ethrsh=10.0 $end
 $contrl scftyp=mcscf  mult=2 maxit=200 icharg=1 mplevl=2 $end
 $guess  guess=moread norb=85 purify=.t. $end
 $basis  gbasis=cct $end
 $mcscf  cistep=gmcci fullnr=.t. finci=mos
         acurcy=1.d-6 maxit=200 $end
 $trans  dirtrf=.t. $end
 $mrmp   mrpt=gmcpt rdvecs=.f. $end
 $gmcpt  nmofzc=5 nmodoc=9 nmoact=7 nelact=7 stsym(1)=A
         reftyp=ormas nspace=1 mstart(1)=15 mine(1)=7 maxe(1)=7
         kstate(1)=1,1,1,1
         wstate(1)=1,1,1,1
         iwgt=0 thrwgt=-1.0 krot=.f. kszdoe=.f. knospn=.f.
         thrde=-1.0 edshft=0.02 $end
 $statpt hssend=.t. $end
 $end
--- Semi-canonical MOs --- generated at Mon Dec  4 10:21:58 2023
 $VEC   
 1  1 9.99999416E-01 7.29973887E-07-3.99440478E-06-4.81875831E-06 1.63484706E-05
 1  2 5.36732169E-06-0.00000000E+00-0.00000000E+00-0.00000000E+00 4.03838885E-11
 1  3-0.00000000E+00-0.00000000E+00 7.96211074E-11 1.14517212E-11-0.00000000E+00
 1  4-1.40849369E-11-0.00000000E+00-0.00000000E+00-2.21867430E-11-0.00000000E+00
 1  5-0.00000000E+00 1.08959399E-07 1.08961145E-07-2.17920544E-07-0.00000000E+00
 1  6-0.00000000E+00-0.00000000E+00 7.02728157E-08 7.02573272E-08-1.40530143E-07
 1  7-0.00000000E+00-0.00000000E+00-0.00000000E+00 8.61676265E-08 8.61266319E-08
 1  8-1.72294258E-07-0.00000000E+00-0.00000000E+00-0.00000000E+00 1.61185015E-07
 1  9-0.00000000E+00-0.00000000E+00-0.00000000E+00-0.00000000E+00-2.16246982E-07
 1 10-0.00000000E+00-0.00000000E+00-0.00000000E+00-0.00000000E+00-2.29650252E-07
 1 11-4.66898658E-07-1.12343498E-06-6.64097518E-08 1.15015824E-07-0.00000000E+00
 1 12-1.90369794E-07 3.29734733E-07-0.00000000E+00 4.67684240E-08-2.10541491E-07
 1 13 1.63773067E-07 2.57316182E-07-0.00000000E+00-0.00000000E+00-2.29652599E-07
 1 14-4.66879487E-07-1.12342770E-06-6.64102175E-08-1.15016523E-07-0.00000000E+00
 1 15-1.90364897E-07-3.29724918E-07-0.00000000E+00 4.67679470E-08-2.10540564E-07
 1 16 1.63772617E-07-2.57315196E-07-0.00000000E+00-0.00000000E+00-2.29639944E-07
 1 17-4.66987046E-07-1.12340031E-06 1.32807841E-07-0.00000000E+00-0.00000000E+00
 1 18 3.80780830E-07-0.00000000E+00-0.00000000E+00-3.39206184E-07 1.75440103E-07
 1 19 1.63766080E-07-0.00000000E+00-0.00000000E+00-0.00000000E+00
 2  1 2.72313662E-06 1.00010341E+00 1.34746909E-04 1.43214017E-04-4.26044547E-04
 2  2-1.40486446E-04 7.10299112E-11-7.88863849E-11-0.00000000E+00-5.42197215E-11
 2  3-1.27361486E-11-0.00000000E+00-1.68049866E-10-3.19745914E-11-0.00000000E+00
 2  4 2.95588732E-11-0.00000000E+00-0.00000000E+00-0.00000000E+00-0.00000000E+00
 2  5-0.00000000E+00-6.69941071E-07-6.69957164E-07 1.33989824E-06-0.00000000E+00
 2  6-0.00000000E+00-0.00000000E+00-2.23303604E-06-2.23305293E-06 4.46608898E-06
 2  7-0.00000000E+00-0.00000000E+00-0.00000000E+00-1.84537905E-06-1.84515653E-06
 2  8 3.69053558E-06 1.25718203E-11-0.00000000E+00-0.00000000E+00-6.15992627E-06
 2  9-0.00000000E+00-0.00000000E+00-0.00000000E+00-0.00000000E+00 8.26439636E-06
 2 10-0.00000000E+00 1.03074137E-11-0.00000000E+00-0.00000000E+00 6.26753809E-06
 2 11 1.14659654E-05 2.93480915E-05 1.78490595E-06-3.09146541E-06-0.00000000E+00
 2 12 4.35808456E-06-7.54855197E-06-0.00000000E+00-1.17068431E-06 4.83624363E-06
 2 13-3.66555932E-06-6.00689597E-06-0.00000000E+00-0.00000000E+00 6.26754513E-06
 2 14 1.14659144E-05 2.93480912E-05 1.78490579E-06 3.09146678E-06-0.00000000E+00
 2 15 4.35807357E-06 7.54852992E-06-0.00000000E+00-1.17068410E-06 4.83624088E-06
 2 16-3.66555677E-06 6.00689232E-06-0.00000000E+00-0.00000000E+00 6.26758004E-06
 2 17 1.14660775E-05 2.93481169E-05-3.56972494E-06-0.00000000E+00-0.00000000E+00
 2 18-8.71631840E-06-0.00000000E+00-0.00000000E+00 7.83962350E-06-4.17409368E-06
 2 19-3.66552982E-06-0.00000000E+00-0.00000000E+00-0.00000000E+00
 3  1 0.00000000E+00 0.00000000E+00 0.00000000E+00 0.00000000E+00 0.00000000E+00
 3  2 0.00000000E+00 0.00000000E+00 0.00000000E+00 1.00002563E+00 0.00000000E+00
 3  3 0.00000000E+00 1.25904569E-06 0.00000000E+00 0.00000000E+00-2.41203922E-06
 3  4 0.00000000E+00 0.00000000E+00-4.46503101E-04 0.00000000E+00 0.00000000E+00
 3  5-6.88965152E-05 0.00000000E+00 0.00000000E+00 0.00000000E+00 0.00000000E+00
 3  6 0.00000000E+00 0.00000000E+00 0.00000000E+00 0.00000000E+00 0.00000000E+00
 3  7 0.00000000E+00 0.00000000E+00 0.00000000E+00 0.00000000E+00 0.00000000E+00
 3  8 0.00000000E+00 0.00000000E+00 0.00000000E+00 0.00000000E+00 0.00000000E+00
 3  9 0.00000000E+00-2.54310087E-07 0.00000000E+00 1.70570019E-07 0.00000000E+00
 3 10 1.70622766E-07 0.00000000E+00 0.00000000E+00 0.00000000E+00 0.00000000E+00
 3 11 0.00000000E+00 0.00000000E+00 0.00000000E+00 0.00000000E+00 1.04446064E-06
 3 12 0.00000000E+00 0.00000000E+00-4.61707375E-06 0.00000000E+00 0.00000000E+00
 3 13 0.00000000E+00 0.00000000E+00 3.11380885E-06-5.39328673E-06 0.00000000E+00
 3 14 0.00000000E+00 0.00000000E+00 0.00000000E+00 0.00000000E+00 1.04446080E-06
 3 15 0.00000000E+00 0.00000000E+00-4.61707376E-06 0.00000000E+00 0.00000000E+00
 3 16 0.00000000E+00 0.00000000E+00 3.11380162E-06 5.39329066E-06 0.00000000E+00
 3 17 0.00000000E+00 0.00000000E+00 0.00000000E+00 0.00000000E+00 1.04450079E-06
 3 18 0.00000000E+00 0.00000000E+00-4.61708950E-06 0.00000000E+00 0.00000000E+00
 3 19 0.00000000E+00 0.00000000E+00-6.22764389E-06 0.00000000E+00
 4  1-0.00000000E+00-8.67420433E-11-3.59317701E-11-0.00000000E+00 5.19582235E-11
 4  2 1.45244599E-10 9.98756333E-01 5.03548974E-02-0.00000000E+00-2.65285548E-06
 4  3-1.33751670E-07-0.00000000E+00-8.85519191E-05-4.46457754E-06-0.00000000E+00
 4  4-4.99940015E-04-2.52057756E-05-0.00000000E+00-8.97971683E-05-4.52735866E-06
 4  5-0.00000000E+00 1.75305679E-06-1.75303642E-06-2.24500290E-11-1.02057579E-07
 4  6-0.00000000E+00-0.00000000E+00-5.55793707E-05 5.55793468E-05 2.39541736E-11
 4  7 3.23567668E-06-0.00000000E+00-0.00000000E+00-1.58309813E-05 1.58310661E-05
 4  8-8.43085285E-11 9.21639769E-07-0.00000000E+00-0.00000000E+00-1.31651537E-05
 4  9-6.63757494E-07-0.00000000E+00-2.96843462E-07-0.00000000E+00-5.88774106E-06
 4 10-0.00000000E+00 2.35506482E-05 1.18736759E-06-0.00000000E+00 6.46952489E-06
 4 11-3.19420183E-05-2.14832779E-05-4.28788994E-06 6.40653903E-06-0.00000000E+00
 4 12-1.76449352E-05 2.75336949E-05-0.00000000E+00 4.72692942E-06-1.47255993E-05
 4 13 9.99866991E-06 1.23238200E-05-0.00000000E+00-0.00000000E+00 7.70755400E-06
 4 14-3.80545194E-05-2.55943707E-05-4.99889254E-06-7.69574951E-06-0.00000000E+00
 4 15-2.06964079E-05-3.29903142E-05-0.00000000E+00 4.96869514E-06-1.68807373E-05
 4 16 1.19120421E-05-1.51239967E-05-0.00000000E+00-0.00000000E+00-1.41771355E-05
 4 17 6.99963785E-05 4.70775683E-05-1.68562818E-05-2.88598051E-08-0.00000000E+00
 4 18-7.15859534E-05-8.56532426E-08-0.00000000E+00 4.18666842E-05-1.99559610E-05
 4 19-2.19107232E-05-2.01637924E-07-0.00000000E+00-0.00000000E+00
 5  1 0.00000000E+00 8.12822035E-11 0.00000000E+00 0.00000000E+00 0.00000000E+00
 5  2 0.00000000E+00-5.03548974E-02 9.98756333E-01 0.00000000E+00 1.33757702E-07
 5  3-2.65285479E-06 0.00000000E+00 4.46459059E-06-8.85519182E-05 0.00000000E+00
 5  4 2.52057752E-05-4.99940015E-04 0.00000000E+00 4.52736364E-06-8.97971682E-05
 5  5 0.00000000E+00-8.83842694E-08 8.83850186E-08 0.00000000E+00-2.02424420E-06
 5  6 0.00000000E+00 0.00000000E+00 2.80218034E-06-2.80218011E-06 0.00000000E+00
 5  7 6.41775158E-05 0.00000000E+00 0.00000000E+00 7.98169109E-07-7.98169622E-07
 5  8 0.00000000E+00 1.82800907E-05 0.00000000E+00 0.00000000E+00 6.63757956E-07
 5  9-1.31651896E-05 0.00000000E+00-5.88769287E-06 0.00000000E+00 2.96845154E-07
 5 10 0.00000000E+00-1.18736990E-06 2.35506482E-05 0.00000000E+00-1.26351311E-05
 5 11 6.23832204E-05 4.19571685E-05 7.28524345E-06-1.31408251E-05 0.00000000E+00
 5 12 3.12285117E-05-5.56399522E-05 0.00000000E+00-2.64204673E-06 2.21696288E-05
 5 13-1.95275821E-05-2.84617581E-05 0.00000000E+00 0.00000000E+00 1.19203552E-05
 5 14-5.88541541E-05-3.95836178E-05-6.81702644E-06-1.24298222E-05 0.00000000E+00
 5 15-2.92954298E-05-5.25884722E-05 0.00000000E+00 2.15321636E-06-2.05761138E-05
 5 16 1.84228975E-05-2.70779051E-05 0.00000000E+00 0.00000000E+00 7.14778910E-07
 5 17-3.52906441E-06-2.37354510E-06 8.49852244E-07-5.72416992E-07 0.00000000E+00
 5 18 3.60920170E-06-1.69887168E-06 0.00000000E+00-2.11081969E-06 1.00613229E-06
 5 19 1.10468740E-06-3.99935625E-06 0.00000000E+00 0.00000000E+00
 6  1-8.46965026E-05-6.09052447E-04 9.75257034E-01-1.92399305E-03 3.62697288E-02
 6  2 4.13192947E-03-1.13809863E-11-1.38071003E-11-0.00000000E+00-5.30585432E-11
 6  3-3.80778315E-11-0.00000000E+00-1.10761603E-10-1.24826817E-10-0.00000000E+00
 6  4 7.23154096E-11 1.61113515E-11-0.00000000E+00-8.77646349E-11-0.00000000E+00
 6  5-0.00000000E+00 3.23698111E-04 3.23698155E-04-6.47396267E-04-0.00000000E+00
 6  6-0.00000000E+00-0.00000000E+00 5.05453764E-05 5.05453233E-05-1.01090700E-04
 6  7 2.52010442E-11-0.00000000E+00-0.00000000E+00-1.53162713E-05-1.53160682E-05
 6  8 3.06323396E-05 5.08681089E-11-0.00000000E+00-0.00000000E+00 4.89551795E-05
 6  9-1.42227766E-11-0.00000000E+00-0.00000000E+00-0.00000000E+00-6.56803569E-05
 6 10-0.00000000E+00 8.51539345E-11 2.02593083E-11-0.00000000E+00 1.88465051E-06
 6 11 3.33449703E-04-6.77167005E-04-3.66166410E-06 6.34230211E-06-0.00000000E+00
 6 12 5.56594118E-06-9.64065360E-06-0.00000000E+00-3.90600790E-06 2.52348867E-05
 6 13-2.13288788E-05-2.91408964E-05-0.00000000E+00-0.00000000E+00 1.88467908E-06
 6 14 3.33449495E-04-6.77167008E-04-3.66166344E-06-6.34229988E-06-0.00000000E+00
 6 15 5.56589500E-06 9.64056057E-06-0.00000000E+00-3.90600555E-06 2.52348757E-05
 6 16-2.13288701E-05 2.91408840E-05-0.00000000E+00-0.00000000E+00 1.88469663E-06
 6 17 3.33449705E-04-6.77166965E-04 7.32339831E-06-0.00000000E+00-0.00000000E+00
 6 18-1.11318224E-05-0.00000000E+00-0.00000000E+00 3.98052669E-05-1.84764021E-05
 6 19-2.13288648E-05-0.00000000E+00-0.00000000E+00-0.00000000E+00
 7  1 0.00000000E+00 0.00000000E+00 0.00000000E+00 7.09411166E-11 1.78452441E-11
 7  2 7.50422856E-11 3.26575499E-05-1.00360365E-04 0.00000000E+00-3.01508856E-01
 7  3 9.26570983E-01 0.00000000E+00 3.09374185E-04-9.50742070E-04 0.00000000E+00
 7  4-1.47894687E-02 4.54497182E-02 0.00000000E+00-6.39790693E-04 1.96614952E-03
 7  5 0.00000000E+00-1.88192872E-04 1.88192889E-04-1.59234750E-11-6.67807337E-04
 7  6 0.00000000E+00 0.00000000E+00 1.02383488E-04-1.02383468E-04-2.05628965E-11
 7  7 3.63310437E-04 0.00000000E+00 0.00000000E+00 6.62696980E-05-6.62696640E-05
 7  8-3.40272888E-11 2.35159702E-04 0.00000000E+00 0.00000000E+00-1.65250430E-05
 7  9 5.07834886E-05 0.00000000E+00 2.27109287E-05 0.00000000E+00-7.39027012E-06
 7 10 0.00000000E+00 2.95609418E-05-9.08441283E-05 0.00000000E+00 4.20033736E-04
 7 11 1.94848864E-03-6.80911461E-04 2.24048091E-05-2.86883262E-05 0.00000000E+00
 7 12 2.64518711E-04-4.13572870E-04 0.00000000E+00-4.94089522E-05 1.39507061E-04
 7 13-9.00981086E-05-1.74157173E-04 0.00000000E+00 0.00000000E+00-2.87170273E-04
 7 14-1.33215040E-03 4.65528193E-04-2.80207819E-05-1.22796801E-05 0.00000000E+00
 7 15-2.36825639E-04-2.50434008E-04 0.00000000E+00 4.98270442E-05-1.11425666E-04
 7 16 6.15986215E-05-1.08370499E-04 0.00000000E+00 0.00000000E+00-1.32863416E-04
 7 17-6.16338408E-04 2.15383257E-04 1.14023180E-05 2.31859136E-05 0.00000000E+00
 7 18 1.55129043E-04 1.02173711E-04 0.00000000E+00-7.05055748E-05 4.20060953E-05
 7 19 2.84994794E-05 3.38204020E-05 0.00000000E+00 0.00000000E+00
 8  1-1.33273146E-11-1.01761104E-10-3.56133357E-10-5.36851308E-10 7.42261272E-11
 8  2-1.28626537E-10-1.00360365E-04-3.26575514E-05-0.00000000E+00 9.26570983E-01
 8  3 3.01508856E-01-0.00000000E+00-9.50742079E-04-3.09374219E-04-0.00000000E+00
 8  4 4.54497182E-02 1.47894687E-02-0.00000000E+00 1.96614952E-03 6.39790684E-04
 8  5-0.00000000E+00 5.78338127E-04-5.78338102E-04-2.78930918E-11-2.17306424E-04
 8  6-0.00000000E+00-0.00000000E+00-3.14636132E-04 3.14636007E-04 1.26539072E-10
 8  7 1.18222262E-04-0.00000000E+00-0.00000000E+00-2.03654349E-04 2.03654213E-04
 8  8 1.35696453E-10 7.65216549E-05-0.00000000E+00-0.00000000E+00 5.07832910E-05
 8  9 1.65250907E-05-0.00000000E+00 7.39020031E-06-0.00000000E+00 2.27111927E-05
 8 10-0.00000000E+00-9.08441271E-05-2.95609360E-05-0.00000000E+00-8.90891636E-05
 8 11-4.13273957E-04 1.44421236E-04 1.68335801E-05 1.85472603E-05-0.00000000E+00
 8 12 3.90174889E-05 1.42637215E-04-0.00000000E+00-1.67882627E-05-2.32153716E-06
 8 13 1.91097999E-05 5.51172964E-05-0.00000000E+00-0.00000000E+00-3.19215373E-04
 8 14-1.48080334E-03 5.17475966E-04 4.24948869E-07-3.18783655E-05-0.00000000E+00
 8 15-1.24121410E-04-3.58706975E-04-0.00000000E+00 1.55034156E-05-8.39757678E-05
 8 16 6.84723522E-05-1.47052613E-04-0.00000000E+00-0.00000000E+00 4.08304367E-04
 8 17 1.89407811E-03-6.61897257E-04-3.50406211E-05 7.54476281E-06-0.00000000E+00
 8 18-4.76729254E-04 3.32476177E-05-0.00000000E+00 2.16671658E-04-1.29089512E-04
 8 19-8.75821461E-05 1.10052558E-05-0.00000000E+00-0.00000000E+00
 9  1-0.00000000E+00-0.00000000E+00-0.00000000E+00-0.00000000E+00-0.00000000E+00
 9  2-0.00000000E+00-0.00000000E+00-0.00000000E+00 3.13610901E-05-0.00000000E+00
 9  3-0.00000000E+00 9.75679193E-01-0.00000000E+00-0.00000000E+00 4.30628675E-04
 9  4-0.00000000E+00-0.00000000E+00 4.66435541E-02-0.00000000E+00-0.00000000E+00
 9  5 1.65233661E-03-0.00000000E+00-0.00000000E+00-0.00000000E+00-0.00000000E+00
 9  6-0.00000000E+00-0.00000000E+00-0.00000000E+00-0.00000000E+00-0.00000000E+00
 9  7-0.00000000E+00 3.35347650E-11-0.00000000E+00-0.00000000E+00-0.00000000E+00
 9  8-0.00000000E+00-0.00000000E+00-2.58779881E-11-0.00000000E+00-0.00000000E+00
 9  9-0.00000000E+00-2.15302490E-04-0.00000000E+00 1.44429328E-04-0.00000000E+00
 9 10 1.44429274E-04-0.00000000E+00-0.00000000E+00-0.00000000E+00-0.00000000E+00
 9 11-0.00000000E+00-0.00000000E+00-0.00000000E+00-0.00000000E+00 1.05544767E-05
 9 12-0.00000000E+00-0.00000000E+00 1.23849716E-04-0.00000000E+00-0.00000000E+00
 9 13-0.00000000E+00-0.00000000E+00-1.75211891E-05 3.03475518E-05-0.00000000E+00
 9 14-0.00000000E+00-0.00000000E+00-0.00000000E+00-0.00000000E+00 1.05544766E-05
 9 15-0.00000000E+00-0.00000000E+00 1.23849716E-04-0.00000000E+00-0.00000000E+00
 9 16-0.00000000E+00-0.00000000E+00-1.75211860E-05-3.03475534E-05-0.00000000E+00
 9 17-0.00000000E+00-0.00000000E+00-0.00000000E+00-0.00000000E+00 1.05544535E-05
 9 18-0.00000000E+00-0.00000000E+00 1.23849681E-04-0.00000000E+00-0.00000000E+00
 9 19-0.00000000E+00-0.00000000E+00 3.50423295E-05-0.00000000E+00
10  1 0.00000000E+00-1.78142575E-11-1.19416158E-11 5.72866501E-11 8.86603764E-11
10  2 2.51108492E-11 2.00854943E-04-8.04554804E-05 0.00000000E+00 9.78819950E-04
10  3-3.92081106E-04 0.00000000E+00 4.32933186E-03-1.73417925E-03 0.00000000E+00
10  4-1.75493643E-03 7.02966293E-04 0.00000000E+00-2.37778912E-03 9.52459350E-04
10  5 0.00000000E+00 7.77151113E-01-7.77151110E-01-2.87762143E-09 3.59457834E-01
10  6 0.00000000E+00 0.00000000E+00 6.80438458E-02-6.80438455E-02-2.98119524E-10
10  7 3.14725064E-02 0.00000000E+00 0.00000000E+00 4.18921527E-04-4.18921520E-04
10  8 0.00000000E+00 1.93764914E-04 0.00000000E+00 0.00000000E+00 4.08838460E-04
10  9-1.63766422E-04 0.00000000E+00-7.32385623E-05 0.00000000E+00 1.82838110E-04
10 10 0.00000000E+00-7.31352464E-04 2.92954273E-04 0.00000000E+00-4.35181710E-03
10 11-2.09586466E-03-1.35036329E-03-8.76515699E-04 9.61531129E-04 0.00000000E+00
10 12-4.90187045E-04-4.04658321E-04 0.00000000E+00-2.20630917E-05-3.57164736E-04
10 13 3.79227827E-04 7.21297240E-04 0.00000000E+00 0.00000000E+00-7.86710917E-04
10 14-3.78885307E-04-2.44115402E-04-5.00937063E-04 2.39092098E-05 0.00000000E+00
10 15-8.59970164E-04 5.18495367E-04 0.00000000E+00-2.09768593E-04 1.41212709E-04
10 16 6.85558841E-05-2.67581082E-04 0.00000000E+00 0.00000000E+00 5.13852804E-03
10 17 2.47474997E-03 1.59447865E-03-1.50073079E-03 1.67459553E-04 0.00000000E+00
10 18 1.24395953E-04 3.77160152E-04 0.00000000E+00 9.61580683E-04-5.13796971E-04
10 19-4.47783712E-04-1.16183351E-04 0.00000000E+00 0.00000000E+00
11  1 0.00000000E+00 1.74999815E-11 3.84711564E-11 2.30257485E-11-4.68439686E-11
11  2 6.09889966E-11-8.04554766E-05-2.00854941E-04 0.00000000E+00-3.92081063E-04
11  3-9.78819926E-04 0.00000000E+00-1.73417915E-03-4.32933182E-03 0.00000000E+00
11  4 7.02966288E-04 1.75493643E-03 0.00000000E+00 9.52459411E-04 2.37778915E-03
11  5 0.00000000E+00-3.11299616E-01 3.11299616E-01-1.83583563E-10 8.97376807E-01
11  6 0.00000000E+00 0.00000000E+00-2.72559901E-02 2.72559901E-02 0.00000000E+00
11  7 7.85702652E-02 0.00000000E+00 0.00000000E+00-1.67805270E-04 1.67805291E-04
11  8-2.15688276E-11 4.83728882E-04 0.00000000E+00 0.00000000E+00-1.63766396E-04
11  9-4.08838466E-04 0.00000000E+00-1.82838096E-04 0.00000000E+00-7.32385799E-05
11 10 0.00000000E+00 2.92954256E-04 7.31352456E-04 0.00000000E+00-3.42093830E-03
11 11-1.64754711E-03-1.06151278E-03-1.92931224E-04 1.04227333E-03 0.00000000E+00
11 12 7.31989740E-04 3.26987135E-04 0.00000000E+00 2.80732708E-04-5.78841514E-04
11 13 2.98108806E-04 3.68290011E-04 0.00000000E+00 0.00000000E+00 5.47925332E-03
11 14 2.63884563E-03 1.70020533E-03 7.44690730E-04 1.41785195E-03 0.00000000E+00
11 15-1.91163859E-04-4.27960080E-05 0.00000000E+00-1.87869025E-04 6.65344361E-04
11 16-4.77475336E-04 7.64400162E-04 0.00000000E+00 0.00000000E+00-2.05831500E-03
11 17-9.91298594E-04-6.38692614E-04 6.01140376E-04 4.18058266E-04 0.00000000E+00
11 18-4.98285964E-05 9.41570168E-04 0.00000000E+00-3.85175674E-04 2.05809140E-04
11 19 1.79366533E-04-2.90048609E-04 0.00000000E+00 0.00000000E+00
12  1-9.64339623E-05-6.44054028E-04-1.50881871E-03-3.27091492E-03 5.96282842E-04
12  2 3.47318598E-03 1.55407153E-11-0.00000000E+00-0.00000000E+00 3.72555304E-11
12  3 3.22491015E-11-0.00000000E+00 2.38027491E-10 2.39877260E-11-0.00000000E+00
12  4 6.69438617E-11-0.00000000E+00-0.00000000E+00-6.67481625E-11 5.14043963E-11
12  5-0.00000000E+00-4.84044717E-01-4.84044721E-01 9.68089438E-01 1.24062516E-09
12  6-0.00000000E+00-0.00000000E+00-4.11112175E-02-4.11112179E-02 8.22224354E-02
12  7 1.05299857E-10-0.00000000E+00-0.00000000E+00-6.72111374E-04-6.72111465E-04
12  8 1.34422284E-03-3.79826596E-11-0.00000000E+00-0.00000000E+00-1.01654937E-03
12  9-0.00000000E+00-0.00000000E+00-0.00000000E+00-0.00000000E+00 1.36384410E-03
12 10-0.00000000E+00-0.00000000E+00-0.00000000E+00-0.00000000E+00-2.81360908E-03
12 11-9.01258003E-04-3.55020898E-04-4.44209562E-04 7.69393502E-04-0.00000000E+00
12 12 6.42403287E-05-1.11267487E-04-0.00000000E+00-1.59927375E-05-3.85817349E-04
12 13 4.01810087E-04 3.69824625E-04-0.00000000E+00-0.00000000E+00-2.81360908E-03
12 14-9.01257931E-04-3.55020819E-04-4.44209561E-04-7.69393506E-04-0.00000000E+00
12 15 6.42403386E-05 1.11267521E-04-0.00000000E+00-1.59927387E-05-3.85817345E-04
12 16 4.01810084E-04-3.69824623E-04-0.00000000E+00-0.00000000E+00-2.81360899E-03
12 17-9.01258050E-04-3.55020821E-04 8.88419133E-04-0.00000000E+00-0.00000000E+00
12 18-1.28480553E-04-0.00000000E+00-0.00000000E+00-5.70729712E-04 1.68919611E-04
12 19 4.01810101E-04-0.00000000E+00-0.00000000E+00-0.00000000E+00
13  1 0.00000000E+00 0.00000000E+00 0.00000000E+00 0.00000000E+00 0.00000000E+00
13  2 0.00000000E+00 0.00000000E+00 0.00000000E+00 0.00000000E+00 0.00000000E+00
13  3 0.00000000E+00 1.78622820E-11 0.00000000E+00 0.00000000E+00 4.89285479E-11
13  4 0.00000000E+00 0.00000000E+00-3.90949617E-11 0.00000000E+00 0.00000000E+00
13  5 2.50486578E-10 0.00000000E+00 0.00000000E+00 0.00000000E+00 0.00000000E+00
13  6 9.65963838E-01 6.83493113E-02 0.00000000E+00 0.00000000E+00 0.00000000E+00
13  7 0.00000000E+00 8.20075136E-02 5.80265725E-03 0.00000000E+00 0.00000000E+00
13  8 0.00000000E+00 0.00000000E+00 9.59524136E-04 6.78936530E-05 0.00000000E+00
13  9 0.00000000E+00-6.04065783E-11 0.00000000E+00 2.35815075E-04 0.00000000E+00
13 10-2.35814987E-04 0.00000000E+00 0.00000000E+00-1.92670013E-05 0.00000000E+00
13 11 0.00000000E+00 0.00000000E+00 0.00000000E+00 0.00000000E+00-1.94165008E-04
13 12 0.00000000E+00 0.00000000E+00-5.01910265E-04 0.00000000E+00 0.00000000E+00
13 13 0.00000000E+00 0.00000000E+00-1.15469370E-05 2.05750878E-04 0.00000000E+00
13 14 0.00000000E+00 0.00000000E+00 0.00000000E+00 0.00000000E+00-2.48404485E-04
13 15 0.00000000E+00 0.00000000E+00-6.42117486E-04 0.00000000E+00 0.00000000E+00
13 16 0.00000000E+00 0.00000000E+00-4.35548751E-05-2.46609331E-04 0.00000000E+00
13 17 0.00000000E+00 0.00000000E+00 0.00000000E+00 0.00000000E+00 4.42569673E-04
13 18 0.00000000E+00 0.00000000E+00 1.14402744E-03 0.00000000E+00 0.00000000E+00
13 19 0.00000000E+00 0.00000000E+00-4.19306334E-04 7.29045704E-06
14  1-0.00000000E+00-0.00000000E+00-0.00000000E+00-0.00000000E+00-0.00000000E+00
14  2-0.00000000E+00-0.00000000E+00-0.00000000E+00-0.00000000E+00-0.00000000E+00
14  3-0.00000000E+00-0.00000000E+00-0.00000000E+00-0.00000000E+00-0.00000000E+00
14  4-0.00000000E+00-0.00000000E+00-0.00000000E+00-0.00000000E+00-0.00000000E+00
14  5-1.77237868E-11-0.00000000E+00-0.00000000E+00-0.00000000E+00-0.00000000E+00
14  6-6.83493113E-02 9.65963838E-01-0.00000000E+00-0.00000000E+00-0.00000000E+00
14  7-0.00000000E+00-5.80265725E-03 8.20075136E-02-0.00000000E+00-0.00000000E+00
14  8-0.00000000E+00-0.00000000E+00-6.78936520E-05 9.59524135E-04-0.00000000E+00
14  9-0.00000000E+00-0.00000000E+00-0.00000000E+00-1.66857152E-05-0.00000000E+00
14 10 1.66857089E-05-0.00000000E+00-0.00000000E+00-2.72295743E-04-0.00000000E+00
14 11-0.00000000E+00-0.00000000E+00-0.00000000E+00-0.00000000E+00 3.98934111E-04
14 12-0.00000000E+00-0.00000000E+00 1.03123126E-03-0.00000000E+00-0.00000000E+00
14 13-0.00000000E+00-0.00000000E+00 2.28129557E-04-3.04725150E-04-0.00000000E+00
14 14-0.00000000E+00-0.00000000E+00-0.00000000E+00-0.00000000E+00-3.67618944E-04
14 15-0.00000000E+00-0.00000000E+00-9.50282568E-04-0.00000000E+00-0.00000000E+00
14 16-0.00000000E+00-0.00000000E+00-2.24230683E-04-2.72717214E-04-0.00000000E+00
14 17-0.00000000E+00-0.00000000E+00-0.00000000E+00-0.00000000E+00-3.13151806E-05
14 18-0.00000000E+00-0.00000000E+00-8.09486709E-05-0.00000000E+00-0.00000000E+00
14 19-0.00000000E+00-0.00000000E+00 2.96691224E-05 1.03034219E-04
15  1 4.41141828E-04 2.64655371E-03 4.24710655E-03 5.55910225E-01 2.34977625E-01
15  2 1.29610819E-01-1.03282545E-11-2.68776008E-11-0.00000000E+00 2.08923788E-10
15  3-2.53621910E-10-0.00000000E+00 2.23951502E-10-5.39956653E-10-0.00000000E+00
15  4 3.35885855E-11 4.43324573E-11-0.00000000E+00-1.87525650E-11-0.00000000E+00
15  5-0.00000000E+00-1.44341154E-02-1.44341153E-02 2.88682307E-02-0.00000000E+00
15  6-0.00000000E+00-0.00000000E+00 8.54853817E-03 8.54853832E-03-1.70970765E-02
15  7 8.86390956E-11-0.00000000E+00-0.00000000E+00 4.54659698E-03 4.54659672E-03
15  8-9.09319370E-03 2.27858277E-10-0.00000000E+00-0.00000000E+00 1.35542310E-02
15  9-4.31080872E-11-0.00000000E+00-2.70895298E-11-0.00000000E+00-1.81849090E-02
15 10-0.00000000E+00-8.88124583E-11 8.49250978E-11-0.00000000E+00 7.47955946E-02
15 11 1.08243021E-01 1.07208951E-02 3.49253557E-03-6.04924916E-03-0.00000000E+00
15 12 6.36349831E-03-1.10219026E-02-0.00000000E+00 1.63371072E-05 1.57120088E-03
15 13-1.58753799E-03-1.55486376E-03-0.00000000E+00-0.00000000E+00 7.47955947E-02
15 14 1.08243021E-01 1.07208950E-02 3.49253558E-03 6.04924917E-03-0.00000000E+00
15 15 6.36349813E-03 1.10219023E-02-0.00000000E+00 1.63371138E-05 1.57120084E-03
15 16-1.58753795E-03 1.55486371E-03-0.00000000E+00-0.00000000E+00 7.47955944E-02
15 17 1.08243021E-01 1.07208948E-02-6.98507120E-03 1.05339283E-11-0.00000000E+00
15 18-1.27269964E-02-2.58960581E-11-0.00000000E+00 2.34863261E-03-7.61094734E-04
15 19-1.58753788E-03-0.00000000E+00-0.00000000E+00-0.00000000E+00
16  1-2.07652469E-11-1.19921733E-10-5.36998320E-10-8.96350242E-10 8.72161686E-11
16  2-5.18288686E-11-4.00823965E-03-7.26141667E-05-0.00000000E+00-5.33832323E-02
16  3-9.67102573E-04-0.00000000E+00 3.63601356E-01 6.58708278E-03-0.00000000E+00
16  4 1.66925463E-01 3.02405879E-03-0.00000000E+00 6.58050606E-02 1.19213898E-03
16  5-0.00000000E+00-5.36969898E-02 5.36969899E-02-1.22244560E-10 1.12327721E-03
16  6-0.00000000E+00-0.00000000E+00 2.83530931E-02-2.83530932E-02 5.79029578E-11
16  7-5.93112992E-04-0.00000000E+00-0.00000000E+00 2.11898076E-02-2.11898076E-02
16  8 6.05624120E-11-4.43265455E-04-0.00000000E+00-0.00000000E+00 7.82449165E-03
16  9 1.41750217E-04-0.00000000E+00 6.33926173E-05-0.00000000E+00 3.49921928E-03
16 10-0.00000000E+00-1.39968764E-02-2.53570490E-04-0.00000000E+00-7.87065950E-02
16 11-1.38006456E-01-3.92562219E-02-1.30529600E-03 5.66183534E-03-0.00000000E+00
16 12-2.30588052E-03 1.39324564E-02-0.00000000E+00 1.44594068E-03-2.52725168E-03
16 13 1.08131100E-03 8.09186953E-04-0.00000000E+00-0.00000000E+00-8.38059489E-02
16 14-1.46947813E-01-4.17996096E-02-1.51576680E-03-5.95597308E-03-0.00000000E+00
16 15-2.82319243E-03-1.46227162E-02-0.00000000E+00 1.43818628E-03-2.58955478E-03
16 16 1.15136851E-03-9.29237750E-04-0.00000000E+00-0.00000000E+00 1.62512544E-01
16 17 2.84954270E-01 8.10558316E-02-1.14718489E-02 3.52041881E-05-0.00000000E+00
16 18-2.72940420E-02 1.02875341E-04-0.00000000E+00 4.42039177E-03-2.18771232E-03
16 19-2.23267945E-03-3.27510601E-05-0.00000000E+00-0.00000000E+00
17  1-0.00000000E+00 2.12620588E-11 7.25846902E-11 1.09911339E-10-3.42164836E-11
17  2-9.07222934E-11 7.26141605E-05-4.00823965E-03-0.00000000E+00 9.67102502E-04
17  3-5.33832323E-02-0.00000000E+00-6.58708293E-03 3.63601356E-01-0.00000000E+00
17  4-3.02405878E-03 1.66925463E-01-0.00000000E+00-1.19213909E-03 6.58050606E-02
17  5-0.00000000E+00 9.72786595E-04-9.72786601E-04-0.00000000E+00 6.20039431E-02
17  6-0.00000000E+00-0.00000000E+00-5.13650928E-04 5.13650938E-04-0.00000000E+00
17  7-3.27393319E-02-0.00000000E+00-0.00000000E+00-3.83879258E-04 3.83879254E-04
17  8-0.00000000E+00-2.44678822E-02-0.00000000E+00-0.00000000E+00-1.41750226E-04
17  9 7.82449170E-03-0.00000000E+00 3.49921921E-03-0.00000000E+00-6.33926359E-05
17 10-0.00000000E+00 2.53570521E-04-1.39968764E-02-0.00000000E+00 1.42212048E-01
17 11 2.49358784E-01 7.09306220E-02 5.83445779E-03-8.22331174E-03-0.00000000E+00
17 12 1.43240462E-02-1.93095293E-02-0.00000000E+00 1.87893756E-04 1.76588725E-03
17 13-1.95378100E-03-3.32909741E-03-0.00000000E+00-0.00000000E+00-1.39267935E-01
17 14-2.44196489E-01-6.94621965E-02-5.78335079E-03-8.01284095E-03-0.00000000E+00
17 15-1.42311268E-02-1.87922175E-02-0.00000000E+00-2.40143236E-04-1.67319004E-03
17 16 1.91333328E-03-3.29760372E-03-0.00000000E+00-0.00000000E+00-2.94411334E-03
17 17-5.16229489E-03-1.46842543E-03 2.07826564E-04 1.94324100E-03-0.00000000E+00
17 18 4.94464940E-04 5.67863180E-03-0.00000000E+00-8.00808013E-05 3.96330851E-05
17 19 4.04477162E-05-1.80783061E-03-0.00000000E+00-0.00000000E+00
18  1-0.00000000E+00-0.00000000E+00-0.00000000E+00-0.00000000E+00-0.00000000E+00
18  2-0.00000000E+00-0.00000000E+00-0.00000000E+00-2.48938659E-04-0.00000000E+00
18  3-0.00000000E+00-1.18877808E-03-0.00000000E+00-0.00000000E+00 6.13185190E-01
18  4-0.00000000E+00-0.00000000E+00 2.26752341E-01-0.00000000E+00-0.00000000E+00
18  5 2.94901957E-01-0.00000000E+00-0.00000000E+00-0.00000000E+00-0.00000000E+00
18  6-1.72504103E-10-0.00000000E+00-0.00000000E+00-0.00000000E+00-0.00000000E+00
18  7-0.00000000E+00 1.48687726E-10-0.00000000E+00-0.00000000E+00-0.00000000E+00
18  8-0.00000000E+00-0.00000000E+00-2.21788801E-10-0.00000000E+00-0.00000000E+00
18  9-0.00000000E+00-1.42661753E-02-0.00000000E+00 9.57004134E-03-0.00000000E+00
18 10 9.57004134E-03-0.00000000E+00-0.00000000E+00-0.00000000E+00-0.00000000E+00
18 11-0.00000000E+00-0.00000000E+00-0.00000000E+00-0.00000000E+00 4.52637251E-03
18 12-0.00000000E+00-0.00000000E+00 2.31406875E-02-0.00000000E+00-0.00000000E+00
18 13-0.00000000E+00-0.00000000E+00 1.32825683E-03-2.30060816E-03-0.00000000E+00
18 14-0.00000000E+00-0.00000000E+00-0.00000000E+00-0.00000000E+00 4.52637251E-03
18 15-0.00000000E+00-0.00000000E+00 2.31406875E-02-0.00000000E+00-0.00000000E+00
18 16-0.00000000E+00-0.00000000E+00 1.32825683E-03 2.30060816E-03-0.00000000E+00
18 17-0.00000000E+00-0.00000000E+00-0.00000000E+00-0.00000000E+00 4.52637263E-03
18 18-0.00000000E+00-0.00000000E+00 2.31406877E-02-0.00000000E+00-0.00000000E+00
18 19-0.00000000E+00-0.00000000E+00-2.65651333E-03-0.00000000E+00
19  1 1.25787568E-03 9.56015454E-03 6.32087717E-02 4.92356997E-01 2.50365065E-01
19  2 6.61523527E-01 0.00000000E+00 1.29344062E-11 0.00000000E+00 0.00000000E+00
19  3 1.32162261E-10 0.00000000E+00-3.64798203E-11 3.01364811E-10 0.00000000E+00
19  4 0.00000000E+00-2.33266377E-11 0.00000000E+00 1.96776270E-10 1.06074823E-10
19  5 0.00000000E+00 5.78933778E-02 5.78933779E-02-1.15786756E-01 0.00000000E+00
19  6 0.00000000E+00 0.00000000E+00-4.79087438E-02-4.79087439E-02 9.58174878E-02
19  7-3.71697253E-11 0.00000000E+00 0.00000000E+00-9.25234545E-02-9.25234548E-02
19  8 1.85046909E-01-1.58911437E-10 0.00000000E+00 0.00000000E+00-4.40081755E-02
19  9 2.63709200E-11 0.00000000E+00 1.28767583E-11 0.00000000E+00 5.90431632E-02
19 10 0.00000000E+00-6.17345419E-11-4.82570601E-11 0.00000000E+00-1.39211725E-01
19 11-3.25565557E-01-3.02535268E-01 5.91898989E-04-1.02519918E-03 0.00000000E+00
19 12-3.07951532E-04 5.33387639E-04 0.00000000E+00-4.67943107E-04-1.71134830E-05
19 13 4.85056590E-04-4.50829669E-04 0.00000000E+00 0.00000000E+00-1.39211725E-01
19 14-3.25565557E-01-3.02535268E-01 5.91898981E-04 1.02519917E-03 0.00000000E+00
19 15-3.07951420E-04-5.33387434E-04 0.00000000E+00-4.67943114E-04-1.71134676E-05
19 16 4.85056581E-04 4.50829683E-04 0.00000000E+00 0.00000000E+00-1.39211725E-01
19 17-3.25565557E-01-3.02535268E-01-1.18379803E-03 0.00000000E+00 0.00000000E+00
19 18 6.15903346E-04 1.64265560E-11 0.00000000E+00 2.08301266E-04-6.93357896E-04
19 19 4.85056630E-04 0.00000000E+00 0.00000000E+00 0.00000000E+00
20  1-3.56052449E-11-1.46834198E-10-6.81471246E-10-9.49660769E-10 9.35768511E-11