 !#############################################################################
 !                   D_3h RHF GEOMETRY OPTIMIZATION AND HESSIAN TEMPLATE
 ! ---------------------------------------------------------------------------
 ! Replace the symmetry-correct coordinates, should only be two atoms.  
 ! The hydrogen or fluorine should have only one non-zero x,y,z coordinate.
 ! 
 ! Basis set?   gbasis=ccd for 2nd row, 
 !                         cct 3rd/4th,
 !                   SPKrTZP for heavy,
 !                   SPKrTZC beyond 4th
 ! 
 !#############################################################################
 $system kdiag=3 mwords=1000 memddi=25000 parall=.t. $end
 $contrl runtyp=energy ispher=1 $end
 $contrl icut=9 itol=20 inttyp=rysquad qmttol=1.0d-05 nosym=1 $end
 $contrl scftyp=mcscf  mult=1 maxit=200 icharg=0 mplevl=2 $end
 $scf    npunch=2 conv=1.0d-06 dirscf=.t. $end
 $force  method=seminum $end
 $trans  dirtrf=.t. $end
 $statpt hssend=.t. $end
 $basis  gbasis=SPKrTZP $end
 !#############################################################################
 !
 !                       TURN ON THIS SECTION IF HEAVY ATOM
 !
 !#############################################################################
 !
 $contrl relwfn=LUT-IOTC $end
 $scf  diis=.t. soscf=.f. ethrsh=10.0 $end
 $guess iorder(43)=44 iorder(44)=43 $end
 $gmcpt nsolut=100 $end
 !
 !#############################################################################
 !
 ! TURN ON THIS SECTION IF GMCPT, CHANGE runtyp=energy, scftyp=mcscf, change nosym=1
 !
 !#############################################################################
 $guess  guess=moread norb=369 purify=.t. norder=1 $end
 $mcscf  cistep=gmcci fullnr=.t. finci=mos
         acurcy=1.d-6 maxit=100 $end
 $mrmp   mrpt=gmcpt rdvecs=.f. $end
 $gmcpt  nmofzc=19 nmodoc=24 nmoact=8 nelact=10 stsym(1)=A
         reftyp=ormas nspace=1 mstart(1)=44 mine(1)=10 maxe(1)=10
         kstate(1)=1,1,1,1,1
         wstate(1)=1,1,1,1,1
         iwgt=0 thrwgt=-1.0 krot=.f. kszdoe=.f. knospn=.f.
         thrde=-1.0 edshft=0.02 maxbas=800 $end
 !#############################################################################
 !
 !             TURN OFF THIS SECTION IF temp.inp, add C1
 !
 !    IF SOC, $transt $end, turn knospn=.t., restart from gmcpt states calc
 !
 !#############################################################################
 $data
 Iron pentacarbonyl optimization
 C1
 FE         26.0  -0.0000000000   0.0000000000   0.0000000000
 C           6.0  -0.8824444078   1.5284385491   0.0000000000
 C           6.0  -0.8824444078  -1.5284385491   0.0000000000
 C           6.0   1.7648888155   0.0000000000   0.0000000000
 O           8.0  -1.4586915946   2.5265279545   0.0000000000
 O           8.0  -1.4586915946  -2.5265279545   0.0000000000
 O           8.0   2.9173831893   0.0000000000   0.0000000000
 C           6.0   0.0000000000   0.0000000000  -1.6781093310
 C           6.0  -0.0000000000   0.0000000000   1.6781093310
 O           8.0  -0.0000000000   0.0000000000  -2.8433375200
 O           8.0  -0.0000000000   0.0000000000   2.8433375200
 $end
Semi-canonical MOs --- generated at Fri Mar 22 06:40:33 2024
 $VEC   
 1  1 9.97431775E-01 1.19232359E-02 3.42097684E-03-7.22559577E-03 2.28010399E-03
 1  2-3.52588954E-03 7.05126461E-04-7.92183361E-05-1.22491558E-11-0.00000000E+00
 1  3-0.00000000E+00-1.70155942E-11-0.00000000E+00-0.00000000E+00 5.63973399E-11
 1  4 3.72491455E-11 7.05244650E-11-1.76985202E-10-1.44937814E-10-6.22425848E-11
 1  5 3.71686424E-10 3.21462297E-10 4.90516329E-11-4.09273448E-10-1.12340984E-09
 1  6 9.42981024E-10 4.55244436E-06 4.55242785E-06-9.10487221E-06-1.62578814E-11
 1  7-0.00000000E+00-0.00000000E+00-1.93000889E-05-1.92999630E-05 3.86000518E-05
 1  8 4.70568633E-11-0.00000000E+00-0.00000000E+00 1.37344576E-04 1.37344033E-04
 1  9-2.74688609E-04-2.26421753E-10 1.56960248E-11-0.00000000E+00-5.06325167E-05
 1 10-5.06316178E-05 1.01264135E-04 2.73908789E-10-2.43118531E-11-0.00000000E+00
 1 11 1.60424115E-05-0.00000000E+00-0.00000000E+00-0.00000000E+00-0.00000000E+00
 1 12-2.15231340E-05-0.00000000E+00-1.79018776E-11-0.00000000E+00-0.00000000E+00
 1 13-1.12811588E-04-0.00000000E+00-2.97364542E-11-0.00000000E+00 2.06966946E-11
 1 14 1.51352677E-04 1.91989451E-11-4.93782725E-11-0.00000000E+00-0.00000000E+00
 1 15-1.77319019E-05-1.77319047E-05-4.72851134E-05-0.00000000E+00-0.00000000E+00
 1 16-0.00000000E+00-0.00000000E+00-0.00000000E+00-0.00000000E+00-1.03827728E-05
 1 17 4.15309886E-05 4.15309935E-05-0.00000000E+00-0.00000000E+00-0.00000000E+00
 1 18-2.99598566E-05-1.93871894E-04 5.33241160E-04 3.72857355E-05-1.44955338E-05
 1 19 2.51070284E-05-0.00000000E+00 1.12165866E-04-1.94277031E-04-0.00000000E+00
 1 20-1.05902093E-04 1.83427879E-04-4.09787697E-11 1.56741458E-06-5.23358732E-06
 1 21 3.66617273E-06 6.80098637E-06-0.00000000E+00-0.00000000E+00-2.59220837E-05
 1 22 1.42027704E-04-1.16105621E-04-1.67949374E-04-0.00000000E+00-0.00000000E+00
 1 23-3.73047168E-05-2.80878587E-05-0.00000000E+00-1.25612624E-05-0.00000000E+00
 1 24 7.90585541E-05-0.00000000E+00-2.90090245E-05 5.02450793E-05-0.00000000E+00
 1 25-2.99598830E-05-1.93872071E-04 5.33242048E-04 3.72845834E-05-1.44955474E-05
 1 26-2.51070367E-05-0.00000000E+00 1.12165856E-04 1.94277017E-04-0.00000000E+00
 1 27-1.05903049E-04-1.83429343E-04-4.06844142E-11 1.56741219E-06-5.23359430E-06
 1 28 3.66618211E-06-6.80098867E-06-0.00000000E+00-0.00000000E+00-2.59220998E-05
 1 29 1.42027842E-04-1.16105742E-04 1.67949573E-04-0.00000000E+00-0.00000000E+00
 1 30-3.73047337E-05 2.80878706E-05-0.00000000E+00 1.25612681E-05-0.00000000E+00
 1 31 7.90585935E-05-0.00000000E+00-2.90090412E-05-5.02451009E-05-0.00000000E+00
 1 32-2.99598341E-05-1.93871594E-04 5.33241604E-04 3.72853149E-05 2.89911164E-05
 1 33-0.00000000E+00-0.00000000E+00-2.24331518E-04-0.00000000E+00-0.00000000E+00
 1 34 2.11804950E-04 9.64007256E-11-3.56021695E-11-8.63397676E-06 4.96784561E-06
 1 35 3.66613115E-06-0.00000000E+00-0.00000000E+00-0.00000000E+00 2.26002191E-04
 1 36-1.09896602E-04-1.16105589E-04 2.09739231E-11-0.00000000E+00-0.00000000E+00
 1 37-8.59542588E-05-0.00000000E+00-0.00000000E+00-0.00000000E+00-0.00000000E+00
 1 38 5.73017599E-05-0.00000000E+00 5.80179795E-05-0.00000000E+00-0.00000000E+00
 1 39-4.08537685E-07 1.67427489E-05 5.08631334E-06-3.68309385E-04-1.30457307E-06
 1 40 2.25959213E-06-0.00000000E+00 2.94567897E-05-5.10206913E-05-0.00000000E+00
 1 41-5.33745434E-05 9.24471629E-05 2.29198837E-11-1.15253554E-06 5.82641187E-06
 1 42-4.67387633E-06-6.97901291E-06-0.00000000E+00-0.00000000E+00-4.20321023E-06
 1 43 1.99639376E-05-1.57607274E-05-2.41670537E-05-0.00000000E+00-0.00000000E+00
 1 44-6.66778702E-06-4.75633020E-06-0.00000000E+00-2.12708904E-06-0.00000000E+00
 1 45 1.38580546E-05-0.00000000E+00-4.91227953E-06 8.50837563E-06-0.00000000E+00
 1 46-4.08532968E-07 1.67427769E-05 5.08623493E-06-3.68310848E-04-1.30457170E-06
 1 47-2.25958907E-06-0.00000000E+00 2.94567830E-05 5.10206948E-05-0.00000000E+00
 1 48-5.33747164E-05-9.24475438E-05 2.27248801E-11-1.15253999E-06 5.82641841E-06
 1 49-4.67387842E-06 6.97901754E-06-0.00000000E+00-0.00000000E+00-4.20319715E-06
 1 50 1.99639197E-05-1.57607226E-05 2.41670501E-05-0.00000000E+00-0.00000000E+00
 1 51-6.66778053E-06 4.75633385E-06-0.00000000E+00 2.12709372E-06-0.00000000E+00
 1 52 1.38580560E-05-0.00000000E+00-4.91228967E-06-8.50838520E-06-0.00000000E+00
 1 53-4.08533178E-07 1.67426977E-05 5.08626421E-06-3.68310067E-04 2.60911437E-06
 1 54-0.00000000E+00-0.00000000E+00-5.89133840E-05-0.00000000E+00-0.00000000E+00
 1 55 1.06749106E-04-4.30133880E-11 2.39079360E-11 9.31593705E-06-4.64206548E-06
 1 56-4.67387157E-06-0.00000000E+00-0.00000000E+00-0.00000000E+00 3.20472801E-05
 1 57-1.62866359E-05-1.57606442E-05-0.00000000E+00-0.00000000E+00-0.00000000E+00
 1 58-1.49059119E-05-0.00000000E+00-0.00000000E+00-0.00000000E+00-0.00000000E+00
 1 59 1.01737977E-05-0.00000000E+00 9.82458163E-06-0.00000000E+00-0.00000000E+00
 1 60-4.43248675E-05-2.54144243E-04 7.71709997E-04-1.37647790E-06-2.04932893E-11
 1 61-0.00000000E+00-3.00233776E-05-0.00000000E+00-0.00000000E+00 3.10098057E-04
 1 62 4.22088303E-11-0.00000000E+00-2.03527090E-04-2.48164882E-06-2.48161232E-06
 1 63 4.96326113E-06-0.00000000E+00-5.08722500E-11-0.00000000E+00-1.75813341E-04
 1 64-1.75813387E-04 3.51626727E-04 1.71487266E-11 7.09593768E-11-0.00000000E+00
 1 65-1.58609135E-07-0.00000000E+00 9.10224390E-05-0.00000000E+00-6.10596853E-05
 1 66 2.12747902E-07-6.10597314E-05 4.99704443E-11-0.00000000E+00-0.00000000E+00
 1 67-4.43248527E-05-2.54144212E-04 7.71710211E-04-1.37719245E-06-2.30418775E-11
 1 68-0.00000000E+00 3.00234062E-05-0.00000000E+00-0.00000000E+00-3.10098250E-04
 1 69 5.09131969E-11-0.00000000E+00 2.03528763E-04-2.48163257E-06-2.48159731E-06
 1 70 4.96322988E-06-0.00000000E+00 4.45400263E-11-0.00000000E+00-1.75813291E-04
 1 71-1.75813334E-04 3.51626625E-04 1.69571009E-11-7.87601427E-11-0.00000000E+00
 1 72-1.58604431E-07-0.00000000E+00-9.10225228E-05-0.00000000E+00 6.10597437E-05
 1 73 2.12749324E-07 6.10597854E-05 4.22107114E-11-0.00000000E+00-0.00000000E+00
 1 74 6.57374278E-07 2.35424736E-05-8.71464960E-05-3.79181817E-04-0.00000000E+00
 1 75-0.00000000E+00-2.91778988E-06-2.32937549E-11-0.00000000E+00 4.84410425E-05
 1 76 3.99348321E-11-0.00000000E+00-1.23621715E-04-3.45526617E-06-3.45525704E-06
 1 77 6.91052322E-06-0.00000000E+00-0.00000000E+00-0.00000000E+00-2.07133789E-05
 1 78-2.07133541E-05 4.14267331E-05-0.00000000E+00 2.44084544E-11-0.00000000E+00
 1 79-1.35449808E-07-0.00000000E+00 1.62258560E-05-0.00000000E+00-1.08846390E-05
 1 80 1.81725805E-07-1.08846312E-05-0.00000000E+00-0.00000000E+00-0.00000000E+00
 1 81 6.57356455E-07 2.35423693E-05-8.71458086E-05-3.79183548E-04-0.00000000E+00
 1 82-0.00000000E+00 2.91781644E-06-1.99465339E-11-0.00000000E+00-4.84412422E-05
 1 83 4.68033102E-11-0.00000000E+00 1.23622171E-04-3.45528302E-06-3.45526944E-06
 1 84 6.91055246E-06-0.00000000E+00-0.00000000E+00-0.00000000E+00-2.07133678E-05
 1 85-2.07133394E-05 4.14267071E-05-0.00000000E+00-3.07540693E-11-0.00000000E+00
 1 86-1.35449109E-07-0.00000000E+00-1.62258585E-05-0.00000000E+00 1.08846389E-05
 1 87 1.81724433E-07 1.08846346E-05-0.00000000E+00-0.00000000E+00-0.00000000E+00
 2  1-3.20539754E-01 1.04838579E+00 2.75074547E-02-1.42947787E-02 4.52369466E-03
 2  2-1.09205472E-02 2.41600014E-03-2.53612103E-04-2.69995002E-10 6.52231218E-11
 2  3 3.82335590E-11 1.83372176E-11 1.68639410E-11 0.00000000E+00-1.99895150E-10
 2  4-8.21022992E-11 1.07716138E-10 4.80330605E-10 2.75949662E-10-2.04777953E-10
 2  5-4.57950579E-10-6.16560751E-10 5.20733189E-10-3.57108303E-09-3.08799267E-11
 2  6-2.72161394E-09-1.11939637E-04-1.11939622E-04 2.23879259E-04 2.39340325E-11
 2  7 1.82937587E-11 0.00000000E+00-2.15032498E-04-2.15032251E-04 4.30064749E-04
 2  8 0.00000000E+00-4.28324010E-11 0.00000000E+00 6.96222943E-04 6.96222002E-04
 2  9-1.39244495E-03 1.81688213E-10 1.55123159E-10 0.00000000E+00-5.20506104E-04
 2 10-5.20503482E-04 1.04100959E-03 1.59606339E-11-2.37712872E-10 0.00000000E+00
 2 11 7.23746346E-05 0.00000000E+00 1.04070136E-11 0.00000000E+00-1.39875885E-11
 2 12-9.71007650E-05 0.00000000E+00 0.00000000E+00 0.00000000E+00 0.00000000E+00
 2 13-4.13126794E-04-1.83556363E-11 0.00000000E+00 0.00000000E+00 0.00000000E+00
 2 14 5.54267665E-04 0.00000000E+00 9.62956962E-11 2.60051573E-11 0.00000000E+00
 2 15-7.61070001E-05-7.61069382E-05-2.02951803E-04 0.00000000E+00 0.00000000E+00
 2 16 0.00000000E+00 0.00000000E+00 0.00000000E+00 0.00000000E+00-4.45635776E-05
 2 17 1.78254666E-04 1.78254557E-04 0.00000000E+00 0.00000000E+00 0.00000000E+00
 2 18 1.25075678E-05-7.93347526E-04 1.22566227E-03 8.92635981E-05-1.35584890E-04
 2 19 2.34840069E-04 0.00000000E+00 3.41373804E-04-5.91276669E-04 0.00000000E+00
 2 20-2.99641560E-04 5.18994605E-04-4.66642177E-11 3.27520784E-06-2.03234909E-05
 2 21 1.70482830E-05 2.35987104E-05 0.00000000E+00 0.00000000E+00-7.41053664E-05
 2 22 4.21591562E-04-3.47486195E-04-4.95696565E-04 0.00000000E+00 3.33974122E-11
 2 23-1.40183080E-04-1.04776203E-04 0.00000000E+00-4.68573584E-05 0.00000000E+00
 2 24 2.96287713E-04 0.00000000E+00-1.08212376E-04 1.87429385E-04 0.00000000E+00
 2 25 1.25076087E-05-7.93347325E-04 1.22566145E-03 8.92629894E-05-1.35584871E-04
 2 26-2.34840027E-04 0.00000000E+00 3.41373766E-04 5.91276510E-04 0.00000000E+00
 2 27-2.99641640E-04-5.18994793E-04-4.78301800E-11 3.27519044E-06-2.03234626E-05
 2 28 1.70482722E-05-2.35987048E-05 0.00000000E+00 0.00000000E+00-7.41053125E-05
 2 29 4.21591313E-04-3.47486001E-04 4.95696179E-04 0.00000000E+00-3.70450737E-11
 2 30-1.40183045E-04 1.04776161E-04 0.00000000E+00 4.68573787E-05 0.00000000E+00
 2 31 2.96287667E-04 0.00000000E+00-1.08212377E-04-1.87429349E-04 0.00000000E+00
 2 32 1.25076525E-05-7.93347252E-04 1.22565827E-03 8.92667481E-05 2.71170012E-04
 2 33 0.00000000E+00-1.54495439E-11-6.82749836E-04-5.03619910E-11 1.35388941E-11
 2 34 5.99277593E-04-2.03070764E-11-2.43786421E-11-3.21230905E-05 1.50747098E-05
 2 35 1.70483807E-05-1.63885519E-11 0.00000000E+00 0.00000000E+00 6.69438692E-04
 2 36-3.21953084E-04-3.47485608E-04-3.48863863E-11-1.70642231E-11 0.00000000E+00
 2 37-3.21661051E-04 0.00000000E+00 0.00000000E+00-2.54685725E-11-1.27312257E-11
 2 38 2.15128625E-04 0.00000000E+00 2.16424960E-04 2.10914298E-11 0.00000000E+00
 2 39-1.85505903E-05 7.79838524E-05 1.93007349E-04-1.00956482E-03 2.45385808E-05
 2 40-4.25019004E-05 0.00000000E+00 1.63915836E-04-2.83910310E-04 0.00000000E+00
 2 41-1.07863937E-04 1.86825715E-04 0.00000000E+00-4.57193570E-06 2.44574870E-05
 2 42-1.98855513E-05-2.90294746E-05 0.00000000E+00 0.00000000E+00-1.74439246E-05
 2 43 7.80877601E-05-6.06438354E-05-9.55316751E-05 0.00000000E+00 0.00000000E+00
 2 44-2.34155446E-05-1.62072150E-05 0.00000000E+00-7.24805620E-06 0.00000000E+00
 2 45 4.81539774E-05 0.00000000E+00-1.67387277E-05 2.89923169E-05 0.00000000E+00
 2 46-1.85505980E-05 7.79838935E-05 1.93007436E-04-1.00956428E-03 2.45385770E-05
 2 47 4.25018767E-05 0.00000000E+00 1.63915811E-04 2.83910333E-04 0.00000000E+00
 2 48-1.07863862E-04-1.86825501E-04 0.00000000E+00-4.57191988E-06 2.44574766E-05
 2 49-1.98855567E-05 2.90294716E-05 0.00000000E+00 0.00000000E+00-1.74439816E-05
 2 50 7.80878042E-05-6.06438226E-05 9.55316564E-05 0.00000000E+00 0.00000000E+00
 2 51-2.34155637E-05 1.62072299E-05 0.00000000E+00 7.24803919E-06 0.00000000E+00
 2 52 4.81539908E-05 0.00000000E+00-1.67387155E-05-2.89923199E-05 0.00000000E+00
 2 53-1.85506559E-05 7.79837602E-05 1.93009172E-04-1.00955909E-03-4.90767864E-05
 2 54 0.00000000E+00 0.00000000E+00-3.27832372E-04 3.86772284E-11 0.00000000E+00
 2 55 2.15725864E-04 3.14136772E-11 1.37301729E-11 3.89722459E-05-1.90866983E-05
 2 56-1.98855476E-05 0.00000000E+00 0.00000000E+00 0.00000000E+00 1.25853961E-04
 2 57-6.52099414E-05-6.06440199E-05-4.88356077E-11 0.00000000E+00 0.00000000E+00
 2 58-5.14872241E-05 0.00000000E+00 0.00000000E+00 0.00000000E+00 0.00000000E+00
 2 59 3.55999156E-05 0.00000000E+00 3.34774441E-05 0.00000000E+00 0.00000000E+00
 2 60-3.05480724E-04-6.18884758E-04 2.77502412E-03 2.24549014E-05 0.00000000E+00
 2 61 0.00000000E+00 8.40520406E-05 0.00000000E+00 3.10705781E-11 1.54301533E-03
 2 62-1.17628058E-10-6.25812476E-11-7.34776270E-04-1.37003098E-05-1.37003386E-05
 2 63 2.74006483E-05 0.00000000E+00 0.00000000E+00 0.00000000E+00-6.00862393E-04
 2 64-6.00862272E-04 1.20172467E-03 1.86324432E-11 1.23751608E-11-2.93672152E-11
 2 65 1.56337913E-06 0.00000000E+00 4.23928384E-04 0.00000000E+00-2.84379779E-04
 2 66-2.09749144E-06-2.84379832E-04 0.00000000E+00 0.00000000E+00 0.00000000E+00
 2 67-3.05480691E-04-6.18884566E-04 2.77502217E-03 2.24578988E-05-2.36081649E-11
 2 68 0.00000000E+00-8.40520100E-05 2.25222703E-11 3.98898104E-11-1.54301574E-03
 2 69 0.00000000E+00-6.69776179E-11 7.34772338E-04-1.37003029E-05-1.37003279E-05
 2 70 2.74006307E-05 0.00000000E+00 2.34415533E-11 0.00000000E+00-6.00862088E-04
 2 71-6.00861941E-04 1.20172403E-03 1.79874101E-11-6.86692881E-11 2.89701042E-11
 2 72 1.56340625E-06 0.00000000E+00-4.23928425E-04 0.00000000E+00 2.84379810E-04
 2 73-2.09750492E-06 2.84379856E-04-2.20730705E-11 0.00000000E+00 0.00000000E+00
 2 74 2.05470189E-05 5.30425504E-05-1.37423928E-04-1.37124569E-03 0.00000000E+00
 2 75 0.00000000E+00-1.06127749E-04-7.45175466E-11-2.50628329E-11 1.53067025E-04
 2 76 5.85721777E-11 0.00000000E+00-4.80903297E-04-1.45578018E-05-1.45577819E-05
 2 77 2.91155837E-05 0.00000000E+00 1.20808433E-11 0.00000000E+00-7.57774296E-05
 2 78-7.57774484E-05 1.51554878E-04 0.00000000E+00 0.00000000E+00-1.63983616E-11
 2 79-7.12124858E-07 0.00000000E+00 5.33415407E-05 0.00000000E+00-3.57825699E-05
 2 80 9.55418212E-07-3.57826167E-05 0.00000000E+00 0.00000000E+00 0.00000000E+00
 2 81 2.05469938E-05 5.30425007E-05-1.37423353E-04-1.37124251E-03 0.00000000E+00
 2 82 0.00000000E+00 1.06127778E-04-4.74387084E-11-2.16167462E-11-1.53067226E-04
 2 83 2.21027436E-11 0.00000000E+00 4.80902239E-04-1.45577977E-05-1.45577797E-05
 2 84 2.91155774E-05 0.00000000E+00 0.00000000E+00 0.00000000E+00-7.57774881E-05
 2 85-7.57775024E-05 1.51554990E-04 0.00000000E+00-3.65555745E-11 1.63561620E-11
 2 86-7.12120630E-07 0.00000000E+00-5.33415456E-05 0.00000000E+00 3.57825695E-05
 2 87 9.55412595E-07 3.57826237E-05 0.00000000E+00 0.00000000E+00 0.00000000E+00
 3  1 4.25539874E-11-1.25022404E-10 4.96153557E-11-4.21043437E-11 4.55459374E-11
 3  2-1.32741027E-10 6.29535758E-10 4.12100463E-11-2.31416468E-01 9.70219321E-01
 3  3 6.84851254E-09-1.24792600E-04 5.23196164E-04-0.00000000E+00-2.10310988E-03
 3  4 8.81734053E-03 1.28456743E-10 5.83858906E-04-2.44784284E-03-4.80070725E-11
 3  5-2.64893405E-04 1.11057194E-03 5.89139701E-11-1.78834984E-04 7.49768041E-04
 3  6-1.38292287E-10 4.45188918E-06-4.45175575E-06-1.30986379E-10 2.15517319E-05
 3  7 1.50594761E-11-2.30754170E-11-3.64300778E-05 3.64300791E-05-0.00000000E+00
 3  8-1.76361916E-04-0.00000000E+00-0.00000000E+00 9.81778649E-05-9.81777835E-05
 3  9-8.19491359E-11 4.75289373E-04-0.00000000E+00-0.00000000E+00-1.40671704E-04
 3 10 1.40671424E-04 2.79780279E-10-6.81006229E-04-7.20210730E-11-5.08196454E-11
 3 11 3.11356129E-06-1.30536571E-05-0.00000000E+00-5.83779181E-06-0.00000000E+00
 3 12 1.39242526E-06-0.00000000E+00-5.56970607E-06 2.33511105E-05-1.46392120E-11
 3 13 9.84053265E-06-4.12565748E-05-0.00000000E+00-1.84504856E-05-1.56366058E-11
 3 14 4.40079937E-06-0.00000000E+00-1.76032593E-05 7.38019890E-05-0.00000000E+00
 3 15 2.32945563E-06 7.41767299E-07 2.04824371E-11-7.21749371E-06-0.00000000E+00
 3 16 1.22492380E-05-0.00000000E+00-0.00000000E+00-0.00000000E+00-2.69746895E-06
 3 17-1.39449971E-06 1.39446558E-06-0.00000000E+00-0.00000000E+00-6.75079338E-06
 3 18-5.55695785E-06-1.31681452E-05-1.82123541E-04-4.49928226E-04-1.39868675E-05
 3 19 2.33338638E-05-0.00000000E+00 6.30579336E-05-1.04698477E-04-4.50377707E-11
 3 20-3.46820494E-04 6.22628866E-04 8.05435379E-11-9.14289559E-07 5.65575573E-06
 3 21-4.74146617E-06-4.92148962E-06-1.79212662E-11-2.55500765E-11 1.12198567E-05
 3 22-3.59895015E-05 2.47696448E-05 4.09681820E-05 2.71657617E-11-0.00000000E+00
 3 23-5.11086311E-05-4.00561917E-05-0.00000000E+00-1.93450929E-05 1.61473829E-11
 3 24 1.11159318E-04-1.78097909E-11-4.25898943E-05 7.30861134E-05 2.62750200E-11
 3 25 4.21165556E-06 9.98044560E-06 1.38035024E-04 3.41008752E-04 1.12383771E-05
 3 26 1.73171258E-05 1.82305609E-11-5.10227196E-05-7.74879200E-05-3.75031861E-11
 3 27 2.47201887E-04 4.80942547E-04 3.71192734E-11 1.71289441E-06-5.30652098E-06
 3 28 3.59362657E-06-3.05013619E-06-0.00000000E+00-3.39696444E-11-1.23654531E-05
 3 29 3.11387990E-05-1.87733458E-05 2.84761186E-05-0.00000000E+00 1.88037886E-11
 3 30 3.84638723E-05-2.88818035E-05-0.00000000E+00-1.63630323E-05-0.00000000E+00
 3 31-8.43714302E-05-0.00000000E+00 3.27667303E-05 5.51120378E-05-0.00000000E+00
 3 32 1.34517177E-06 3.18777376E-06 4.40899311E-05 1.08919899E-04-6.58494954E-06
 3 33-1.52035641E-06-0.00000000E+00 2.95832456E-05 7.70361125E-06-0.00000000E+00
 3 34-1.72513552E-04 3.73470812E-05 2.45795230E-11-1.86497918E-06 7.17220013E-07
 3 35 1.14775917E-06 2.80878709E-06-0.00000000E+00-0.00000000E+00 1.32939630E-05
 3 36-7.29745367E-06-5.99650937E-06-1.06346802E-05-3.10436917E-11 1.50211600E-11
 3 37 2.95835271E-05-2.07753696E-06-0.00000000E+00 3.94900022E-06-0.00000000E+00
 3 38-1.92127902E-05-0.00000000E+00-2.04776764E-05-1.16169190E-06-0.00000000E+00
 3 39-2.92145741E-06 1.01941870E-05 2.78614008E-04-5.53056579E-04-4.06835421E-09
 3 40 3.97295678E-06-2.75858959E-11 5.40970488E-05-8.66742176E-05 4.97253056E-11
 3 41-5.81932920E-05 9.78635977E-05-0.00000000E+00-1.97681376E-06 9.92467986E-06
 3 42-7.94786610E-06-1.23932936E-05-0.00000000E+00-0.00000000E+00-1.32095684E-06
 3 43 3.37405366E-06-2.05309682E-06-8.47034799E-07-0.00000000E+00-4.14462207E-11
 3 44-2.23943202E-06-2.56382744E-06-0.00000000E+00-4.04019508E-07-0.00000000E+00
 3 45 5.07031307E-06-0.00000000E+00-2.06579974E-06 3.84375497E-06-0.00000000E+00
 3 46 2.21421434E-06-7.72640618E-06-2.11166535E-04 4.19171217E-04-2.83019517E-06
 3 47 4.64700752E-06 1.33330799E-11-4.60197506E-05-6.27943571E-05 1.65260409E-11
 3 48 4.61993087E-05 7.29637683E-05-4.54676528E-11 1.19395523E-06-7.21782812E-06
 3 49 6.02387289E-06-9.59595556E-06-0.00000000E+00-0.00000000E+00 3.38208194E-06
 3 50-4.93812155E-06 1.55603961E-06 9.45266760E-07 2.17705377E-11-3.06297044E-11
 3 51 1.80342304E-06-2.68932960E-06-0.00000000E+00 5.85287093E-07-0.00000000E+00
 3 52-3.79543205E-06-0.00000000E+00 1.37588614E-06 3.02282719E-06 2.64568391E-11
 3 53 7.07263867E-07-2.46773252E-06-6.74485159E-05 1.33885033E-04-8.33549018E-07
 3 54 6.75722471E-06-1.28935796E-11 2.47195498E-05 1.19692749E-05 2.27916765E-11
 3 55-2.75605979E-05-4.99317488E-06 1.06577916E-11-3.93246509E-06 2.00844877E-06
 3 56 1.92401632E-06-8.37993443E-07-0.00000000E+00-0.00000000E+00-6.86575250E-07
 3 57 1.89469457E-07 4.97105782E-07 6.55675251E-06-2.48989680E-11-0.00000000E+00
 3 58 1.41197301E-06 1.16153975E-06-0.00000000E+00-2.01105015E-06-0.00000000E+00
 3 59-8.38436242E-07-0.00000000E+00-1.05592434E-06 4.52681049E-07-0.00000000E+00
 3 60 1.27813402E-11-1.26099173E-11-4.20892122E-10-2.81863694E-10-2.17545848E-06
 3 61 9.12068412E-06-2.97492076E-11 5.60895163E-06-2.35157715E-05-4.65907415E-11
 3 62 1.84294699E-06-7.72650554E-06-4.23567624E-10 4.14152508E-07-4.14134954E-07
 3 63-1.84319284E-11 2.00490965E-06-6.65519476E-07 2.79015017E-06 1.45556580E-06
 3 64-1.45544738E-06-1.18935185E-10 7.04627231E-06 1.57694069E-05-6.61138330E-05
 3 65 7.57124886E-07-3.17428965E-06 3.94637164E-11-1.41958405E-06 1.33061734E-06
 3 66 3.38608861E-07-1.33067080E-06-1.35439849E-06 5.67834051E-06 6.44185775E-06
 3 67 4.21917621E-11-7.54709534E-11 9.75421517E-11-3.16836291E-10-2.17546853E-06
 3 68 9.12069515E-06 4.35052623E-11 5.60899828E-06-2.35157629E-05 2.20590956E-10
 3 69 1.84299139E-06-7.72657364E-06 6.03500682E-10 4.14152703E-07-4.14161689E-07
 3 70-0.00000000E+00 2.00492027E-06 6.65501074E-07-2.79013474E-06 1.45553620E-06
 3 71-1.45549194E-06-4.47622855E-11 7.04628925E-06-1.57694438E-05 6.61138255E-05
 3 72 7.57113119E-07-3.17430219E-06 1.90169073E-11-1.41959883E-06-1.33066402E-06
 3 73 3.38604468E-07 1.33063904E-06-1.35437831E-06 5.67837211E-06-6.44187031E-06
 3 74-0.00000000E+00-0.00000000E+00 2.09574629E-10-2.26583089E-10-1.23369495E-06
 3 75 5.17230576E-06 1.08352892E-11 3.20969275E-06-1.34567370E-05 8.82095098E-11
 3 76 4.70491098E-06-1.97256370E-05-0.00000000E+00 1.18731911E-07-1.18738053E-07
 3 77-0.00000000E+00 5.74710304E-07-5.54280414E-07 2.32382115E-06-3.05064390E-07
 3 78 3.05054570E-07 1.05960714E-11-1.47675721E-06 3.87101501E-06-1.62293497E-05
 3 79 2.60251390E-08-1.09124849E-07 1.77229669E-11-4.87886876E-08 7.42692747E-08
 3 80 1.16340736E-08-7.42942827E-08-4.65504615E-08 1.95195036E-07 3.59700868E-07
 3 81-0.00000000E+00 3.02736269E-11 1.88471632E-11-5.29804091E-10-1.23369665E-06
 3 82 5.17228847E-06-1.39462849E-11 3.20968353E-06-1.34567327E-05-2.00685237E-11
 3 83 4.70491623E-06-1.97255873E-05 1.75843180E-10 1.18739247E-07-1.18745868E-07
 3 84-0.00000000E+00 5.74732926E-07 5.54283835E-07-2.32382127E-06-3.05047945E-07
 3 85 3.05080680E-07-3.21248056E-11-1.47677260E-06-3.87100666E-06 1.62293628E-05
 3 86 2.60396717E-08-1.09132398E-07-0.00000000E+00-4.87757080E-08-7.42954201E-08
 3 87 1.16315309E-08 7.42919468E-08-4.65674165E-08 1.95192184E-07-3.59699342E-07
 4  1-7.62842478E-11 2.49151914E-10-4.46601997E-11 1.35281558E-10-6.61073905E-10
 4  2 1.51870901E-09-6.27108060E-09-4.37246971E-10 9.70219321E-01 2.31416468E-01
 4  3-2.44934624E-08 5.23196123E-04 1.24792612E-04-6.95958878E-11 8.81734070E-03
 4  4 2.10310985E-03-1.79951922E-10-2.44784311E-03-5.83858822E-04-1.56067825E-10
 4  5 1.11057242E-03 2.64893185E-04 4.82700501E-10 7.49770155E-04 1.78835018E-04
 4  6-2.54009925E-09-1.86643242E-05 1.86644762E-05-1.62347442E-10 5.14047002E-06
 4  7-1.25677059E-11 0.00000000E+00 1.52734154E-04-1.52733928E-04-2.35477495E-10
 4  8-4.20657423E-05-2.23771566E-11 0.00000000E+00-4.11613629E-04 4.11612429E-04
 4  9 1.20273440E-09 1.13365909E-04 0.00000000E+00 0.00000000E+00 5.89770256E-04
 4 10-5.89768155E-04-2.09895670E-09-1.62433406E-04-2.33677573E-11 1.45415654E-11
 4 11-1.30536435E-05-3.11356061E-06 0.00000000E+00-1.39242733E-06 0.00000000E+00
 4 12-5.83780288E-06 0.00000000E+00 2.33511033E-05 5.56970723E-06 0.00000000E+00
 4 13-4.12567439E-05-9.84051860E-06 4.92811567E-11-4.40080114E-06-4.18649319E-11
 4 14-1.84503548E-05-2.42733126E-11 7.38020852E-05 1.76032423E-05 0.00000000E+00
 4 15-9.76627002E-06-3.10986165E-06-2.33473289E-11-1.72149716E-06 0.00000000E+00
 4 16 2.92166854E-06 0.00000000E+00-2.45748892E-11 0.00000000E+00 1.13092196E-05
 4 17 5.84640696E-06-5.84637397E-06 0.00000000E+00 2.82849977E-11-1.61019888E-06
 4 18 1.65495916E-06 3.92157758E-06 5.42407187E-05 1.33996958E-04 2.75324308E-06
 4 19-7.76472218E-06-3.55570894E-11-1.16236290E-05 3.53128243E-05 3.05340088E-11
 4 20 1.37983478E-04-1.65399595E-04-2.82060691E-11-1.98744515E-06 5.75350218E-07
 4 21 1.41209493E-06 2.97214491E-06 0.00000000E+00 0.00000000E+00 5.21421170E-06
 4 22 2.16280690E-06-7.37701861E-06-1.79050706E-05 0.00000000E+00 0.00000000E+00
 4 23 1.58243344E-05 1.52028467E-05 0.00000000E+00 1.99264292E-06 3.09863041E-11
 4 24-3.28354416E-05-3.12743187E-11 1.16048692E-05-2.23894021E-05 0.00000000E+00
 4 25 3.98498670E-06 9.44305745E-06 1.30603513E-04 3.22651470E-04 8.76998089E-06
 4 26 1.74608296E-05-3.28916930E-11-3.88339623E-05-7.87676782E-05 4.43861544E-11
 4 27 2.79670225E-04 4.28624244E-04 0.00000000E+00-1.36083292E-06-2.03936259E-06
 4 28 3.40019552E-06-4.87357741E-06 0.00000000E+00 0.00000000E+00-4.11302511E-07
 4 29 1.81741020E-05-1.77627995E-05 3.44686823E-05-2.47763546E-11 0.00000000E+00
 4 30 3.71891245E-05-3.16459521E-05-1.86764380E-11-1.05097391E-05 2.64281711E-11
 4 31-7.94733864E-05 0.00000000E+00 2.95789401E-05 5.29672392E-05 0.00000000E+00
 4 32-5.63978313E-06-1.33647843E-05-1.84847759E-04-4.56649465E-04 2.76073563E-05
 4 33-3.62630093E-07 0.00000000E+00-1.24028636E-04 1.83746309E-06 1.48432504E-11
 4 34 7.23266744E-04 8.90795955E-06 9.21188483E-11 7.81898294E-06-3.00695912E-06
 4 35-4.81202383E-06 6.69940986E-07 0.00000000E+00 0.00000000E+00-5.57350403E-05
 4 36 3.05947544E-05 2.51402859E-05-2.53653548E-06 3.82748331E-11 0.00000000E+00
 4 37-1.24029644E-04-4.95544869E-07 0.00000000E+00 9.41934593E-07 2.75751598E-11
 4 38 8.05501765E-05-2.74686239E-11 8.58530528E-05-2.77091385E-07 0.00000000E+00
 4 39 8.70100594E-07-3.03585760E-06-8.29767464E-05 1.64710021E-04 6.27838069E-06
 4 40 2.44102292E-06 1.26659832E-11-4.99229328E-06 3.22330278E-05 0.00000000E+00
 4 41 1.26924443E-05-3.18232651E-05 0.00000000E+00 1.26286609E-06-3.62989327E-06
 4 42 2.36702718E-06 3.24148018E-06 0.00000000E+00 1.51723814E-11-4.88147649E-06
 4 43 4.26998875E-06 6.11487740E-07 3.76895774E-06-1.80579207E-11 0.00000000E+00
 4 44 4.31884198E-07-8.89585059E-07 1.14363201E-11 2.09543992E-06 0.00000000E+00
 4 45-1.61518927E-06-1.95071064E-11 1.03575581E-06-9.01936323E-07 0.00000000E+00
 4 46 2.09505083E-06-7.31036148E-06-1.99798807E-04 3.96607141E-04 5.60427666E-06
 4 47-3.85037555E-07 0.00000000E+00-2.88720691E-05-6.78840652E-05-1.31324677E-11
 4 48 3.75924101E-05 7.25694731E-05-2.58479289E-11 2.01921574E-06-7.71873195E-06
 4 49 5.69951620E-06-8.48640114E-06 0.00000000E+00 0.00000000E+00-3.75979295E-06
 4 50 2.28746261E-06 1.47233034E-06-3.74542119E-06-2.23343337E-11-1.97198396E-11
 4 51 1.39614517E-06-3.63406175E-07 1.14372244E-11-2.05220875E-06 0.00000000E+00
 4 52-3.72981116E-06-1.68333552E-11 1.85668586E-06 2.53976929E-06 0.00000000E+00
 4 53-2.96520560E-06 1.03460307E-05 2.82779115E-04-5.61315508E-04 3.49468749E-06
 4 54 1.61174391E-06 0.00000000E+00-1.03637198E-04 2.85487180E-06 0.00000000E+00
 4 55 1.15548388E-04-1.19096401E-06-6.84034255E-11 1.64869590E-05-8.42031669E-06
 4 56-8.06664229E-06-1.99883290E-07 2.45805996E-11 0.00000000E+00 2.87849200E-06
 4 57-7.94488440E-07-2.08400356E-06 1.56392716E-06 2.36050508E-11 0.00000000E+00
 4 58-5.91973224E-06 2.77055756E-07 1.47856022E-11-4.79689725E-07-3.80828977E-11
 4 59 3.51525042E-06 1.82459306E-11 4.42690379E-06 1.07980423E-07 0.00000000E+00
 4 60 1.37552322E-11-2.86024799E-11 8.47770893E-10 9.30589759E-10 9.12069445E-06
 4 61 2.17546561E-06-5.76024433E-11-2.35157990E-05-5.60897915E-06 0.00000000E+00
 4 62-7.72646267E-06-1.84296249E-06 1.02570372E-09-1.73632163E-06 1.73630442E-06
 4 63 2.11991767E-11 4.78230287E-07 2.79011975E-06 6.65510018E-07-6.10238302E-06
 4 64 6.10201026E-06 3.74953923E-10 1.68066712E-06-6.61137780E-05-1.57694176E-05
 4 65-3.17425574E-06-7.57130479E-07-9.22201613E-11-3.38589208E-07-5.57874990E-06
 4 66-1.41961496E-06 5.57887611E-06 5.67832593E-06 1.35438634E-06 1.53651030E-06
 4 67 4.26434826E-11 9.74626625E-11-4.52018793E-10 3.46571174E-09 9.12068449E-06
 4 68 2.17546201E-06 0.00000000E+00-2.35157525E-05-5.60896305E-06 0.00000000E+00
 4 69-7.72662999E-06-1.84295973E-06-4.60505678E-09-1.73632357E-06 1.73629682E-06