 !#############################################################################
 !                   D_3h RHF GEOMETRY OPTIMIZATION AND HESSIAN TEMPLATE
 ! ---------------------------------------------------------------------------
 ! Replace the symmetry-correct coordinates, should only be two atoms.  
 ! The hydrogen or fluorine should have only one non-zero x,y,z coordinate.
 ! 
 ! Basis set?   gbasis=ccd for 2nd row, 
 !                         cct 3rd/4th,
 !                   SPKrTZP for heavy,
 !                   SPKrTZC beyond 4th
 ! 
 !#############################################################################
 $system kdiag=3 mwords=300 memddi=15000 parall=.t. $end
 $contrl runtyp=optimize ispher=1 $end
 $contrl icut=9 itol=20 inttyp=rysquad qmttol=1.0d-05 nosym=0 $end
 $contrl scftyp=rhf  mult=1 maxit=200 icharg=0 mplevl=2 $end
 $scf    npunch=2 conv=1.0d-06 dirscf=.t. $end
 $force  method=seminum $end
 $trans  dirtrf=.t. $end
 $statpt hssend=.t. $end
 $basis  gbasis=SPKrTZP $end
 !#############################################################################
 !
 !                       TURN ON THIS SECTION IF HEAVY ATOM
 !
 !#############################################################################
 !
 $contrl relwfn=LUT-IOTC $end
 $scf  diis=.t. soscf=.f. ethrsh=10.0 $end
 -guess iorder(25)=27,25,26 $end
 -gmcpt nsolut=100 $end
 !
 !#############################################################################
 !
 ! TURN ON THIS SECTION IF GMCPT, CHANGE runtyp=energy, scftyp=mcscf, change nosym=1
 !
 !#############################################################################
 $guess  guess=moread norb=369 purify=.t. norder=1 $end
 -mcscf  cistep=gmcci fullnr=.t. finci=mos
         acurcy=1.d-6 maxit=100 $end
 -mrmp   mrpt=gmcpt rdvecs=.f. $end
 -gmcpt  nmofzc=27 nmodoc=0 nmoact=5 nelact=5 stsym(1)=A
         reftyp=ormas nspace=1 mstart(1)=28 mine(1)=5 maxe(1)=5
         kstate(1)=1
         wstate(1)=1
         iwgt=0 thrwgt=-1.0 krot=.f. kszdoe=.f. knospn=.f.
         thrde=-1.0 edshft=0.02 $end
 !#############################################################################
 !
 !             TURN OFF THIS SECTION IF temp.inp, add C1
 !
 !    IF SOC, $transt $end, turn knospn=.t., restart from gmcpt states calc
 !
 !#############################################################################
 $data
 Iron pentacarbonyl optimization
DNH 3

 FE         26.0   0.0000000000  -0.0000000000   0.0000000000
 C           6.0   1.9447032541   0.0000000000   0.0000000000
 O           8.0   3.0872929011   0.0000000000   0.0000000000
 C           6.0   0.0000000000  -0.0000000000   2.0006139027
 O           8.0  -0.0000000000  -0.0000000000   3.1372475938
 $end
OPTIMIZED ROHF     MO-S --- GENERATED AT Fri Mar 15 14:35:37 2024
E=    -1837.3734374724, E(NUC)=  736.5795762504
 $VEC   
 1  1-9.97459438E-01-1.20760782E-02-3.96285862E-03 7.46186045E-03-5.86278171E-04
 1  2 1.19927651E-03-1.04372298E-03 2.92833934E-05 0.00000000E+00 0.00000000E+00
 1  3 0.00000000E+00 0.00000000E+00 0.00000000E+00 0.00000000E+00 0.00000000E+00
 1  4 0.00000000E+00 0.00000000E+00 0.00000000E+00 0.00000000E+00 0.00000000E+00
 1  5 0.00000000E+00 0.00000000E+00 0.00000000E+00 0.00000000E+00 0.00000000E+00
 1  6 0.00000000E+00-4.36042792E-06-4.36042792E-06 8.72085583E-06 0.00000000E+00
 1  7 0.00000000E+00 0.00000000E+00 1.09469066E-05 1.09469066E-05-2.18938131E-05
 1  8 0.00000000E+00 0.00000000E+00 0.00000000E+00-3.95219422E-05-3.95219422E-05
 1  9 7.90438845E-05 0.00000000E+00 0.00000000E+00 0.00000000E+00 3.93807317E-05
 1 10 3.93807317E-05-7.87614633E-05 0.00000000E+00 0.00000000E+00 0.00000000E+00
 1 11-4.50956038E-06 0.00000000E+00 0.00000000E+00 0.00000000E+00 0.00000000E+00
 1 12 6.05021013E-06 0.00000000E+00 0.00000000E+00 0.00000000E+00 0.00000000E+00
 1 13 2.44619950E-05 0.00000000E+00 0.00000000E+00 0.00000000E+00 0.00000000E+00
 1 14-3.28192103E-05 0.00000000E+00 0.00000000E+00 0.00000000E+00 0.00000000E+00
 1 15 4.19958061E-06 4.19958061E-06 1.11988816E-05 0.00000000E+00 0.00000000E+00
 1 16 0.00000000E+00 0.00000000E+00 0.00000000E+00 0.00000000E+00 2.45902261E-06
 1 17-9.83609046E-06-9.83609046E-06 0.00000000E+00 0.00000000E+00 0.00000000E+00
 1 18 7.40350901E-06 6.64288544E-05-2.14114088E-04 2.27683806E-05 1.30083180E-06
 1 19-2.25310677E-06 0.00000000E+00-3.93624389E-06 6.81777440E-06 0.00000000E+00
 1 20 1.31782986E-04-2.28254827E-04 0.00000000E+00-2.45883385E-06 1.08953437E-05
 1 21-8.43650981E-06-1.33541775E-05 0.00000000E+00 0.00000000E+00 8.56302244E-06
 1 22-3.79194756E-05 2.93564532E-05 4.64824981E-05 0.00000000E+00 0.00000000E+00
 1 23 1.26550853E-05 9.79173974E-06 0.00000000E+00 4.37899914E-06 0.00000000E+00
 1 24-2.70914440E-05 0.00000000E+00 1.01128653E-05-1.75159965E-05 0.00000000E+00
 1 25 7.40350901E-06 6.64288544E-05-2.14114088E-04 2.27683806E-05 1.30083180E-06
 1 26 2.25310677E-06 0.00000000E+00-3.93624389E-06-6.81777440E-06 0.00000000E+00
 1 27 1.31782986E-04 2.28254827E-04 0.00000000E+00-2.45883385E-06 1.08953437E-05
 1 28-8.43650981E-06 1.33541775E-05 0.00000000E+00 0.00000000E+00 8.56302244E-06
 1 29-3.79194756E-05 2.93564532E-05-4.64824981E-05 0.00000000E+00 0.00000000E+00
 1 30 1.26550853E-05-9.79173974E-06 0.00000000E+00-4.37899914E-06 0.00000000E+00
 1 31-2.70914440E-05 0.00000000E+00 1.01128653E-05 1.75159965E-05 0.00000000E+00
 1 32 7.40350901E-06 6.64288544E-05-2.14114088E-04 2.27683806E-05-2.60166360E-06
 1 33 0.00000000E+00 0.00000000E+00 7.87248777E-06 0.00000000E+00 0.00000000E+00
 1 34-2.63565972E-04 0.00000000E+00 0.00000000E+00 1.75724324E-05-9.13592259E-06
 1 35-8.43650981E-06 0.00000000E+00 0.00000000E+00 0.00000000E+00-6.11607247E-05
 1 36 3.18042715E-05 2.93564532E-05 0.00000000E+00 0.00000000E+00 0.00000000E+00
 1 37 2.96148761E-05 0.00000000E+00 0.00000000E+00 0.00000000E+00 0.00000000E+00
 1 38-1.95067950E-05 0.00000000E+00-2.02257306E-05 0.00000000E+00 0.00000000E+00
 1 39 5.49393966E-07-3.38302444E-06-2.54060655E-05 3.26613549E-04-2.75387065E-07
 1 40 4.76984387E-07 0.00000000E+00-8.70932918E-06 1.50850006E-05 0.00000000E+00
 1 41 4.28218157E-05-7.41695604E-05 0.00000000E+00 7.33564461E-07-3.33830130E-06
 1 42 2.60473684E-06 4.07186576E-06 0.00000000E+00 0.00000000E+00 6.14901058E-07
 1 43-4.43636033E-06 3.82145927E-06 5.05126138E-06 0.00000000E+00 0.00000000E+00
 1 44 3.50366876E-06 2.77821440E-06 0.00000000E+00 1.24245525E-06 0.00000000E+00
 1 45-7.56999241E-06 0.00000000E+00 2.86932750E-06-4.96982101E-06 0.00000000E+00
 1 46 5.49393966E-07-3.38302444E-06-2.54060655E-05 3.26613549E-04-2.75387065E-07
 1 47-4.76984387E-07 0.00000000E+00-8.70932918E-06-1.50850006E-05 0.00000000E+00
 1 48 4.28218157E-05 7.41695604E-05 0.00000000E+00 7.33564461E-07-3.33830130E-06
 1 49 2.60473684E-06-4.07186576E-06 0.00000000E+00 0.00000000E+00 6.14901058E-07
 1 50-4.43636033E-06 3.82145927E-06-5.05126138E-06 0.00000000E+00 0.00000000E+00
 1 51 3.50366876E-06-2.77821440E-06 0.00000000E+00-1.24245525E-06 0.00000000E+00
 1 52-7.56999241E-06 0.00000000E+00 2.86932750E-06 4.96982101E-06 0.00000000E+00
 1 53 5.49393966E-07-3.38302444E-06-2.54060655E-05 3.26613549E-04 5.50774129E-07
 1 54 0.00000000E+00 0.00000000E+00 1.74186584E-05 0.00000000E+00 0.00000000E+00
 1 55-8.56436313E-05 0.00000000E+00 0.00000000E+00-5.37423418E-06 2.76949734E-06
 1 56 2.60473684E-06 0.00000000E+00 0.00000000E+00 0.00000000E+00-6.96199102E-06
 1 57 3.14053175E-06 3.82145927E-06 0.00000000E+00 0.00000000E+00 0.00000000E+00
 1 58 8.31567727E-06 0.00000000E+00 0.00000000E+00 0.00000000E+00 0.00000000E+00
 1 59-5.41799679E-06 0.00000000E+00-5.73865499E-06 0.00000000E+00 0.00000000E+00
 1 60 7.59374405E-06 6.99610071E-05-1.26650949E-04 2.12162512E-05 0.00000000E+00
 1 61 0.00000000E+00 4.90231119E-06 0.00000000E+00 0.00000000E+00-2.19497696E-05
 1 62 0.00000000E+00 0.00000000E+00 1.97761480E-04-9.56574929E-06-9.56574929E-06
 1 63 1.91314986E-05 0.00000000E+00 0.00000000E+00 0.00000000E+00 3.05660472E-05
 1 64 3.05660472E-05-6.11320944E-05 0.00000000E+00 0.00000000E+00 0.00000000E+00
 1 65-6.16612394E-07 0.00000000E+00-3.70007408E-05 0.00000000E+00 2.48208515E-05
 1 66 8.27272337E-07 2.48208515E-05 0.00000000E+00 0.00000000E+00 0.00000000E+00
 1 67 7.59374405E-06 6.99610071E-05-1.26650949E-04 2.12162512E-05 0.00000000E+00
 1 68 0.00000000E+00-4.90231119E-06 0.00000000E+00 0.00000000E+00 2.19497696E-05
 1 69 0.00000000E+00 0.00000000E+00-1.97761480E-04-9.56574929E-06-9.56574929E-06
 1 70 1.91314986E-05 0.00000000E+00 0.00000000E+00 0.00000000E+00 3.05660472E-05
 1 71 3.05660472E-05-6.11320944E-05 0.00000000E+00 0.00000000E+00 0.00000000E+00
 1 72-6.16612394E-07 0.00000000E+00 3.70007408E-05 0.00000000E+00-2.48208515E-05
 1 73 8.27272337E-07-2.48208515E-05 0.00000000E+00 0.00000000E+00 0.00000000E+00
 1 74 4.32523448E-07-6.68307902E-06-2.44810439E-05 2.31509374E-04 0.00000000E+00
 1 75 0.00000000E+00-1.34515932E-07 0.00000000E+00 0.00000000E+00-2.38360414E-05
 1 76 0.00000000E+00 0.00000000E+00 5.48427062E-05 2.65793090E-06 2.65793090E-06
 1 77-5.31586180E-06 0.00000000E+00 0.00000000E+00 0.00000000E+00 6.44586109E-06
 1 78 6.44586109E-06-1.28917222E-05 0.00000000E+00 0.00000000E+00 0.00000000E+00
 1 79 3.40724558E-08 0.00000000E+00-9.32268474E-06 0.00000000E+00 6.25384705E-06
 1 80-4.57129964E-08 6.25384705E-06 0.00000000E+00 0.00000000E+00 0.00000000E+00
 1 81 4.32523448E-07-6.68307902E-06-2.44810439E-05 2.31509374E-04 0.00000000E+00
 1 82 0.00000000E+00 1.34515932E-07 0.00000000E+00 0.00000000E+00 2.38360414E-05
 1 83 0.00000000E+00 0.00000000E+00-5.48427062E-05 2.65793090E-06 2.65793090E-06
 1 84-5.31586180E-06 0.00000000E+00 0.00000000E+00 0.00000000E+00 6.44586109E-06
 1 85 6.44586109E-06-1.28917222E-05 0.00000000E+00 0.00000000E+00 0.00000000E+00
 1 86 3.40724558E-08 0.00000000E+00 9.32268474E-06 0.00000000E+00-6.25384705E-06
 1 87-4.57129964E-08-6.25384705E-06 0.00000000E+00 0.00000000E+00 0.00000000E+00
 2  1-3.20439190E-01 1.04924906E+00 2.97913185E-02-1.56511404E-02-1.51866122E-03
 2  2-2.53825742E-03 3.53762610E-03-1.15279906E-04 0.00000000E+00 0.00000000E+00
 2  3 0.00000000E+00 0.00000000E+00 0.00000000E+00 0.00000000E+00 0.00000000E+00
 2  4 0.00000000E+00 0.00000000E+00 0.00000000E+00 0.00000000E+00 0.00000000E+00
 2  5 0.00000000E+00 0.00000000E+00 0.00000000E+00 0.00000000E+00 0.00000000E+00
 2  6 0.00000000E+00 3.77123183E-04 3.77123183E-04-7.54246366E-04 0.00000000E+00
 2  7 0.00000000E+00 0.00000000E+00-4.55465458E-04-4.55465458E-04 9.10930915E-04
 2  8 0.00000000E+00 0.00000000E+00 0.00000000E+00 3.39942065E-04 3.39942065E-04
 2  9-6.79884130E-04 0.00000000E+00 0.00000000E+00 0.00000000E+00-4.59713953E-04
 2 10-4.59713953E-04 9.19427905E-04 0.00000000E+00 0.00000000E+00 0.00000000E+00
 2 11 1.84873723E-05 0.00000000E+00 0.00000000E+00 0.00000000E+00 0.00000000E+00
 2 12-2.48034127E-05 0.00000000E+00 0.00000000E+00 0.00000000E+00 0.00000000E+00
 2 13-6.56425730E-05 0.00000000E+00 0.00000000E+00 0.00000000E+00 0.00000000E+00
 2 14 8.80687533E-05 0.00000000E+00 0.00000000E+00 0.00000000E+00 0.00000000E+00
 2 15-4.20588408E-05-4.20588408E-05-1.12156909E-04 0.00000000E+00 0.00000000E+00
 2 16 0.00000000E+00 0.00000000E+00 0.00000000E+00 0.00000000E+00-2.46271355E-05
 2 17 9.85085418E-05 9.85085418E-05 0.00000000E+00 0.00000000E+00 0.00000000E+00
 2 18-1.90535100E-05-1.57367567E-04 4.73938268E-04 6.41672679E-05-1.37092727E-06
 2 19 2.37451569E-06 0.00000000E+00 2.80897164E-05-4.86528160E-05 0.00000000E+00
 2 20-3.18279994E-04 5.51277121E-04 0.00000000E+00 8.29440701E-06-3.79730543E-05
 2 21 2.96786473E-05 4.62674613E-05 0.00000000E+00 0.00000000E+00-1.92865042E-05
 2 22 8.71644867E-05-6.78779825E-05-1.06450991E-04 0.00000000E+00 0.00000000E+00
 2 23-3.38238072E-05-3.15679012E-05 0.00000000E+00-1.41175946E-05 0.00000000E+00
 2 24 7.79825874E-05 0.00000000E+00-3.26031882E-05 5.64703784E-05 0.00000000E+00
 2 25-1.90535100E-05-1.57367567E-04 4.73938268E-04 6.41672679E-05-1.37092727E-06
 2 26-2.37451569E-06 0.00000000E+00 2.80897164E-05 4.86528160E-05 0.00000000E+00
 2 27-3.18279994E-04-5.51277121E-04 0.00000000E+00 8.29440701E-06-3.79730543E-05
 2 28 2.96786473E-05-4.62674613E-05 0.00000000E+00 0.00000000E+00-1.92865042E-05
 2 29 8.71644867E-05-6.78779825E-05 1.06450991E-04 0.00000000E+00 0.00000000E+00
 2 30-3.38238072E-05 3.15679012E-05 0.00000000E+00 1.41175946E-05 0.00000000E+00
 2 31 7.79825874E-05 0.00000000E+00-3.26031882E-05-5.64703784E-05 0.00000000E+00
 2 32-1.90535100E-05-1.57367567E-04 4.73938268E-04 6.41672679E-05 2.74185455E-06
 2 33 0.00000000E+00 0.00000000E+00-5.61794328E-05 0.00000000E+00 0.00000000E+00
 2 34 6.36559989E-04 0.00000000E+00 0.00000000E+00-6.11067849E-05 3.14281377E-05
 2 35 2.96786473E-05 0.00000000E+00 0.00000000E+00 0.00000000E+00 1.40389982E-04
 2 36-7.25119996E-05-6.78779825E-05 0.00000000E+00 0.00000000E+00 0.00000000E+00
 2 37-8.85010159E-05 0.00000000E+00 0.00000000E+00 0.00000000E+00 0.00000000E+00
 2 38 5.35301963E-05 0.00000000E+00 6.52063763E-05 0.00000000E+00 0.00000000E+00
 2 39-1.65821674E-06 2.05784490E-06 1.26161099E-04-8.42294299E-04-1.69620735E-06
 2 40 2.93791731E-06 0.00000000E+00 3.28665976E-05-5.69266169E-05 0.00000000E+00
 2 41-1.04426760E-04 1.80872453E-04 0.00000000E+00-2.24386573E-06 9.88410032E-06
 2 42-7.64023460E-06-1.21279660E-05 0.00000000E+00 0.00000000E+00-1.42255380E-06
 2 43 1.67341784E-05-1.53116246E-05-1.81567322E-05 0.00000000E+00 0.00000000E+00
 2 44-8.97643504E-06-8.48866285E-06 0.00000000E+00-3.79624543E-06 0.00000000E+00
 2 45 2.08102047E-05 0.00000000E+00-8.76705329E-06 1.51849817E-05 0.00000000E+00
 2 46-1.65821674E-06 2.05784490E-06 1.26161099E-04-8.42294299E-04-1.69620735E-06
 2 47-2.93791731E-06 0.00000000E+00 3.28665976E-05 5.69266169E-05 0.00000000E+00
 2 48-1.04426760E-04-1.80872453E-04 0.00000000E+00-2.24386573E-06 9.88410032E-06
 2 49-7.64023460E-06 1.21279660E-05 0.00000000E+00 0.00000000E+00-1.42255380E-06
 2 50 1.67341784E-05-1.53116246E-05 1.81567322E-05 0.00000000E+00 0.00000000E+00
 2 51-8.97643504E-06 8.48866285E-06 0.00000000E+00 3.79624543E-06 0.00000000E+00
 2 52 2.08102047E-05 0.00000000E+00-8.76705329E-06-1.51849817E-05 0.00000000E+00
 2 53-1.65821674E-06 2.05784490E-06 1.26161099E-04-8.42294299E-04 3.39241470E-06
 2 54 0.00000000E+00 0.00000000E+00-6.57331952E-05 0.00000000E+00 0.00000000E+00
 2 55 2.08853519E-04 0.00000000E+00 0.00000000E+00 1.59480833E-05-8.30784875E-06
 2 56-7.64023460E-06 0.00000000E+00 0.00000000E+00 0.00000000E+00 2.58125445E-05
 2 57-1.05009199E-05-1.53116246E-05 0.00000000E+00 0.00000000E+00 0.00000000E+00
 2 58-2.36792304E-05 0.00000000E+00 0.00000000E+00 0.00000000E+00 0.00000000E+00
 2 59 1.42349147E-05 0.00000000E+00 1.75341066E-05 0.00000000E+00 0.00000000E+00
 2 60-1.12786060E-05-2.49070488E-04 1.85798077E-04-2.70495607E-04 0.00000000E+00
 2 61 0.00000000E+00-4.66381301E-05 0.00000000E+00 0.00000000E+00 1.88278421E-04
 2 62 0.00000000E+00 0.00000000E+00-9.76032786E-04 4.57578795E-05 4.57578795E-05
 2 63-9.15157590E-05 0.00000000E+00 0.00000000E+00 0.00000000E+00-5.88753591E-05
 2 64-5.88753591E-05 1.17750718E-04 0.00000000E+00 0.00000000E+00 0.00000000E+00
 2 65 1.38536080E-06 0.00000000E+00 1.92545653E-04 0.00000000E+00-1.29163551E-04
 2 66-1.85865655E-06-1.29163551E-04 0.00000000E+00 0.00000000E+00 0.00000000E+00
 2 67-1.12786060E-05-2.49070488E-04 1.85798077E-04-2.70495607E-04 0.00000000E+00
 2 68 0.00000000E+00 4.66381301E-05 0.00000000E+00 0.00000000E+00-1.88278421E-04
 2 69 0.00000000E+00 0.00000000E+00 9.76032786E-04 4.57578795E-05 4.57578795E-05
 2 70-9.15157590E-05 0.00000000E+00 0.00000000E+00 0.00000000E+00-5.88753591E-05
 2 71-5.88753591E-05 1.17750718E-04 0.00000000E+00 0.00000000E+00 0.00000000E+00
 2 72 1.38536080E-06 0.00000000E+00-1.92545653E-04 0.00000000E+00 1.29163551E-04
 2 73-1.85865655E-06 1.29163551E-04 0.00000000E+00 0.00000000E+00 0.00000000E+00
 2 74-6.73092542E-06 2.13153628E-05 3.34062036E-04-9.60725406E-04 0.00000000E+00
 2 75 0.00000000E+00-2.25333738E-06 0.00000000E+00 0.00000000E+00 1.83289595E-04
 2 76 0.00000000E+00 0.00000000E+00-1.81168247E-04-1.43059838E-05-1.43059838E-05
 2 77 2.86119676E-05 0.00000000E+00 0.00000000E+00 0.00000000E+00-3.19553546E-05
 2 78-3.19553546E-05 6.39107091E-05 0.00000000E+00 0.00000000E+00 0.00000000E+00
 2 79-1.39851193E-07 0.00000000E+00 3.83470455E-05 0.00000000E+00-2.57239801E-05
 2 80 1.87630065E-07-2.57239801E-05 0.00000000E+00 0.00000000E+00 0.00000000E+00
 2 81-6.73092542E-06 2.13153628E-05 3.34062036E-04-9.60725406E-04 0.00000000E+00
 2 82 0.00000000E+00 2.25333738E-06 0.00000000E+00 0.00000000E+00-1.83289595E-04
 2 83 0.00000000E+00 0.00000000E+00 1.81168247E-04-1.43059838E-05-1.43059838E-05
 2 84 2.86119676E-05 0.00000000E+00 0.00000000E+00 0.00000000E+00-3.19553546E-05
 2 85-3.19553546E-05 6.39107091E-05 0.00000000E+00 0.00000000E+00 0.00000000E+00
 2 86-1.39851193E-07 0.00000000E+00-3.83470455E-05 0.00000000E+00 2.57239801E-05
 2 87 1.87630065E-07 2.57239801E-05 0.00000000E+00 0.00000000E+00 0.00000000E+00
 3  1 0.00000000E+00 0.00000000E+00 0.00000000E+00 0.00000000E+00 0.00000000E+00
 3  2 0.00000000E+00 0.00000000E+00 0.00000000E+00-9.97425817E-01 0.00000000E+00
 3  3 0.00000000E+00-4.96863970E-04 0.00000000E+00 0.00000000E+00-9.21018346E-03
 3  4 0.00000000E+00 0.00000000E+00 2.68007202E-03 0.00000000E+00 0.00000000E+00
 3  5-1.46224434E-03 0.00000000E+00 0.00000000E+00-1.17716357E-04 0.00000000E+00
 3  6 0.00000000E+00 8.56000024E-05-8.56000024E-05 0.00000000E+00 0.00000000E+00
 3  7 0.00000000E+00 0.00000000E+00-4.35575727E-05 4.35575727E-05 0.00000000E+00
 3  8 0.00000000E+00 0.00000000E+00 0.00000000E+00 1.33023936E-04-1.33023936E-04
 3  9 0.00000000E+00 0.00000000E+00 0.00000000E+00 0.00000000E+00-3.19483257E-04
 3 10 3.19483257E-04 0.00000000E+00 0.00000000E+00 0.00000000E+00 0.00000000E+00
 3 11 6.89949905E-05 0.00000000E+00 0.00000000E+00 0.00000000E+00 0.00000000E+00
 3 12 3.08554978E-05 0.00000000E+00-1.23421991E-04 0.00000000E+00 0.00000000E+00
 3 13 2.91960377E-05 0.00000000E+00 0.00000000E+00 0.00000000E+00 0.00000000E+00
 3 14 1.30568650E-05 0.00000000E+00-5.22274599E-05 0.00000000E+00 0.00000000E+00
 3 15-5.18248545E-06-2.38966819E-06 0.00000000E+00 0.00000000E+00 0.00000000E+00
 3 16 0.00000000E+00 0.00000000E+00 0.00000000E+00 0.00000000E+00 6.65069876E-06
 3 17 2.45295951E-06-2.45295951E-06 0.00000000E+00 0.00000000E+00 0.00000000E+00
 3 18 1.40961867E-05 7.55871635E-05-2.77595398E-04-4.51540839E-05-3.66069468E-06
 3 19 3.19123553E-07 0.00000000E+00 1.67116490E-05-2.82912713E-05 0.00000000E+00
 3 20-9.67375666E-05 5.68654312E-05 0.00000000E+00 1.66697177E-06-6.75989910E-06
 3 21 5.09292734E-06 5.00474410E-06 0.00000000E+00 0.00000000E+00 1.43099955E-05
 3 22-7.79787796E-05 6.36687841E-05 1.04362342E-04 0.00000000E+00 0.00000000E+00
 3 23-6.49800237E-06-4.60429412E-06 0.00000000E+00-4.56430910E-06 0.00000000E+00
 3 24 1.53576650E-05 0.00000000E+00-6.63968001E-06 1.07416179E-05 0.00000000E+00
 3 25 1.40961867E-05 7.55871635E-05-2.77595398E-04-4.51540839E-05-3.66069468E-06
 3 26-3.19123553E-07 0.00000000E+00 1.67116490E-05 2.82912713E-05 0.00000000E+00
 3 27-9.67375666E-05-5.68654312E-05 0.00000000E+00 1.66697177E-06-6.75989910E-06
 3 28 5.09292734E-06-5.00474410E-06 0.00000000E+00 0.00000000E+00 1.43099955E-05
 3 29-7.79787796E-05 6.36687841E-05-1.04362342E-04 0.00000000E+00 0.00000000E+00
 3 30-6.49800237E-06 4.60429412E-06 0.00000000E+00 4.56430910E-06 0.00000000E+00
 3 31 1.53576650E-05 0.00000000E+00-6.63968001E-06-1.07416179E-05 0.00000000E+00
 3 32-2.81923735E-05-1.51174327E-04 5.55190796E-04 9.03081678E-05-4.21343288E-06
 3 33 0.00000000E+00 0.00000000E+00 6.57135683E-05 0.00000000E+00 0.00000000E+00
 3 34-1.95231383E-04 0.00000000E+00 0.00000000E+00 1.68134789E-05-6.62762425E-06
 3 35-1.01858547E-05 0.00000000E+00 0.00000000E+00 0.00000000E+00 2.66356685E-04
 3 36-1.39019117E-04-1.27337568E-04 0.00000000E+00 0.00000000E+00 0.00000000E+00
 3 37 3.45316134E-05 0.00000000E+00 0.00000000E+00 0.00000000E+00 0.00000000E+00
 3 38-2.10843131E-05 0.00000000E+00-2.52447079E-05 0.00000000E+00 0.00000000E+00
 3 39-2.18622567E-06-1.10238760E-05 1.77209679E-04-3.17480524E-05 1.20315223E-06
 3 40 5.54228387E-06 0.00000000E+00 1.63326917E-05-4.11302926E-05 0.00000000E+00
 3 41 3.13788402E-05-3.82269194E-06 0.00000000E+00-1.70681703E-06 4.13565963E-06
 3 42-2.42884260E-06-2.62147049E-06 0.00000000E+00 0.00000000E+00 3.44736871E-06
 3 43-4.70541129E-06 1.25804258E-06-3.73675709E-07 0.00000000E+00 0.00000000E+00
 3 44 5.70476842E-07 5.57918881E-07 0.00000000E+00-2.53633516E-07 0.00000000E+00
 3 45-9.36255805E-07 0.00000000E+00 1.70880806E-07-4.94893210E-07 0.00000000E+00
 3 46-2.18622567E-06-1.10238760E-05 1.77209679E-04-3.17480524E-05 1.20315223E-06
 3 47-5.54228387E-06 0.00000000E+00 1.63326917E-05 4.11302926E-05 0.00000000E+00
 3 48 3.13788402E-05 3.82269194E-06 0.00000000E+00-1.70681703E-06 4.13565963E-06
 3 49-2.42884260E-06 2.62147049E-06 0.00000000E+00 0.00000000E+00 3.44736871E-06
 3 50-4.70541129E-06 1.25804258E-06 3.73675709E-07 0.00000000E+00 0.00000000E+00
 3 51 5.70476842E-07-5.57918881E-07 0.00000000E+00 2.53633516E-07 0.00000000E+00
 3 52-9.36255805E-07 0.00000000E+00 1.70880806E-07 4.94893210E-07 0.00000000E+00
 3 53 4.37245135E-06 2.20477519E-05-3.54419359E-04 6.34961049E-05-8.39636503E-06
 3 54 0.00000000E+00 0.00000000E+00 8.75724482E-05 0.00000000E+00 0.00000000E+00
 3 55 3.79999369E-05 0.00000000E+00 0.00000000E+00-9.28228666E-06 4.42460146E-06
 3 56 4.85768520E-06 0.00000000E+00 0.00000000E+00 0.00000000E+00 4.77391902E-06
 3 57-2.25783386E-06-2.51608516E-06 0.00000000E+00 0.00000000E+00 0.00000000E+00
 3 58-1.90670780E-06 0.00000000E+00 0.00000000E+00 0.00000000E+00 0.00000000E+00
 3 59 1.53005596E-06 0.00000000E+00 1.02806099E-06 0.00000000E+00 0.00000000E+00
 3 60 0.00000000E+00 0.00000000E+00 0.00000000E+00 0.00000000E+00-9.08730511E-06
 3 61 0.00000000E+00 0.00000000E+00 1.39998854E-05 0.00000000E+00 0.00000000E+00
 3 62-1.82971128E-05 0.00000000E+00 0.00000000E+00-5.70462050E-07 5.70462050E-07
 3 63 0.00000000E+00 0.00000000E+00-8.36221096E-06 0.00000000E+00 4.36608596E-06
 3 64-4.36608596E-06 0.00000000E+00 0.00000000E+00 4.56021186E-05 0.00000000E+00
 3 65-1.16196385E-05 0.00000000E+00 0.00000000E+00 0.00000000E+00 4.48707126E-06
 3 66-5.19646030E-06-4.48707126E-06 2.07858412E-05 0.00000000E+00 0.00000000E+00
 3 67 0.00000000E+00 0.00000000E+00 0.00000000E+00 0.00000000E+00-9.08730511E-06
 3 68 0.00000000E+00 0.00000000E+00 1.39998854E-05 0.00000000E+00 0.00000000E+00
 3 69-1.82971128E-05 0.00000000E+00 0.00000000E+00-5.70462050E-07 5.70462050E-07
 3 70 0.00000000E+00 0.00000000E+00 8.36221096E-06 0.00000000E+00 4.36608596E-06
 3 71-4.36608596E-06 0.00000000E+00 0.00000000E+00-4.56021186E-05 0.00000000E+00
 3 72-1.16196385E-05 0.00000000E+00 0.00000000E+00 0.00000000E+00-4.48707126E-06
 3 73-5.19646030E-06 4.48707126E-06 2.07858412E-05 0.00000000E+00 0.00000000E+00
 3 74 0.00000000E+00 0.00000000E+00 0.00000000E+00 0.00000000E+00 2.53013555E-06
 3 75 0.00000000E+00 0.00000000E+00-2.38721015E-06 0.00000000E+00 0.00000000E+00
 3 76 2.81664364E-05 0.00000000E+00 0.00000000E+00 4.31787809E-08-4.31787809E-08
 3 77 0.00000000E+00 0.00000000E+00-4.46101415E-06 0.00000000E+00 6.35326475E-07
 3 78-6.35326475E-07 0.00000000E+00 0.00000000E+00 5.86498509E-06 0.00000000E+00
 3 79 2.71755388E-06 0.00000000E+00 0.00000000E+00 0.00000000E+00 8.36315791E-07
 3 80 1.21532704E-06-8.36315791E-07-4.86130816E-06 0.00000000E+00 0.00000000E+00
 3 81 0.00000000E+00 0.00000000E+00 0.00000000E+00 0.00000000E+00 2.53013555E-06
 3 82 0.00000000E+00 0.00000000E+00-2.38721015E-06 0.00000000E+00 0.00000000E+00
 3 83 2.81664364E-05 0.00000000E+00 0.00000000E+00 4.31787809E-08-4.31787809E-08
 3 84 0.00000000E+00 0.00000000E+00 4.46101415E-06 0.00000000E+00 6.35326475E-07
 3 85-6.35326475E-07 0.00000000E+00 0.00000000E+00-5.86498509E-06 0.00000000E+00
 3 86 2.71755388E-06 0.00000000E+00 0.00000000E+00 0.00000000E+00-8.36315791E-07
 3 87 1.21532704E-06 8.36315791E-07-4.86130816E-06 0.00000000E+00 0.00000000E+00
 4  1 0.00000000E+00 0.00000000E+00 0.00000000E+00 0.00000000E+00 0.00000000E+00
 4  2 0.00000000E+00 0.00000000E+00 0.00000000E+00 0.00000000E+00-9.97425817E-01
 4  3 0.00000000E+00 0.00000000E+00-4.96863970E-04 0.00000000E+00 0.00000000E+00
 4  4-9.21018346E-03 0.00000000E+00 0.00000000E+00 2.68007202E-03 0.00000000E+00
 4  5 0.00000000E+00-1.46224434E-03 0.00000000E+00 0.00000000E+00-1.17716357E-04
 4  6 0.00000000E+00 0.00000000E+00 0.00000000E+00 0.00000000E+00-9.88423689E-05
 4  7 0.00000000E+00 0.00000000E+00 0.00000000E+00 0.00000000E+00 0.00000000E+00
 4  8 5.02959527E-05 0.00000000E+00 0.00000000E+00 0.00000000E+00 0.00000000E+00
 4  9 0.00000000E+00-1.53602811E-04 0.00000000E+00 0.00000000E+00 0.00000000E+00
 4 10 0.00000000E+00 0.00000000E+00 3.68907489E-04 0.00000000E+00 0.00000000E+00
 4 11 0.00000000E+00 6.89949905E-05 0.00000000E+00 3.08554978E-05 0.00000000E+00
 4 12 0.00000000E+00 0.00000000E+00 0.00000000E+00-1.23421991E-04 0.00000000E+00
 4 13 0.00000000E+00 2.91960377E-05 0.00000000E+00 1.30568650E-05 0.00000000E+00
 4 14 0.00000000E+00 0.00000000E+00 0.00000000E+00-5.22274599E-05 0.00000000E+00
 4 15 0.00000000E+00 0.00000000E+00 0.00000000E+00-4.66842442E-06 0.00000000E+00
 4 16 6.77959583E-06 0.00000000E+00 0.00000000E+00 0.00000000E+00 0.00000000E+00
 4 17 0.00000000E+00 0.00000000E+00 0.00000000E+00 0.00000000E+00-2.83243367E-06
 4 18-2.44153116E-05-1.30920808E-04 4.80809333E-04 7.82091675E-05 3.19123553E-07
 4 19-4.02918681E-06 0.00000000E+00-2.82912713E-05 4.93795952E-05 0.00000000E+00
 4 20 5.68654312E-05-1.62400111E-04 0.00000000E+00 7.63689198E-08 8.74483998E-06
 4 21-8.82120890E-06-1.06442369E-05 0.00000000E+00 0.00000000E+00-3.52416550E-05
 4 22 1.45519224E-04-1.10277569E-04-1.73790202E-04 0.00000000E+00 0.00000000E+00
 4 23 1.16789658E-05 1.14539303E-05 0.00000000E+00 3.67597190E-06 0.00000000E+00
 4 24-2.64105948E-05 0.00000000E+00 1.07416179E-05-1.90430320E-05 0.00000000E+00
 4 25 2.44153116E-05 1.30920808E-04-4.80809333E-04-7.82091675E-05-3.19123553E-07
 4 26-4.02918682E-06 0.00000000E+00 2.82912713E-05 4.93795952E-05 0.00000000E+00
 4 27-5.68654312E-05-1.62400111E-04 0.00000000E+00-7.63689198E-08-8.74483998E-06
 4 28 8.82120890E-06-1.06442369E-05 0.00000000E+00 0.00000000E+00 3.52416550E-05
 4 29-1.45519224E-04 1.10277569E-04-1.73790202E-04 0.00000000E+00 0.00000000E+00
 4 30-1.16789658E-05 1.14539303E-05 0.00000000E+00 3.67597190E-06 0.00000000E+00
 4 31 2.64105948E-05 0.00000000E+00-1.07416179E-05-1.90430320E-05 0.00000000E+00
 4 32 0.00000000E+00 0.00000000E+00 0.00000000E+00 0.00000000E+00 0.00000000E+00
 4 33-3.47644861E-06 0.00000000E+00 0.00000000E+00 3.77675836E-07 0.00000000E+00
 4 34 0.00000000E+00-6.39062946E-05 0.00000000E+00 0.00000000E+00 0.00000000E+00
 4 35 0.00000000E+00-1.97576581E-06 0.00000000E+00 0.00000000E+00 0.00000000E+00
 4 36 0.00000000E+00 0.00000000E+00 6.97067720E-06 0.00000000E+00 0.00000000E+00
 4 37 0.00000000E+00-1.37225193E-06 0.00000000E+00 2.27907319E-06 0.00000000E+00
 4 38 0.00000000E+00 0.00000000E+00 0.00000000E+00-4.38004033E-07 0.00000000E+00
 4 39 3.78665394E-06 1.90939132E-05-3.06936168E-04 5.49892399E-05 5.54228387E-06
 4 40-5.19652594E-06 0.00000000E+00-4.11302926E-05 6.38258627E-05 0.00000000E+00
 4 41-3.82269194E-06 3.57929047E-05 0.00000000E+00 1.66820644E-07-4.37369943E-06
 4 42 4.20687878E-06 6.40016886E-06 0.00000000E+00 0.00000000E+00 1.41310949E-06
 4 43 7.65884178E-07-2.17899367E-06-4.27552619E-06 0.00000000E+00 0.00000000E+00
 4 44-8.76895790E-07-2.52588949E-07 0.00000000E+00-4.03450626E-07 0.00000000E+00
 4 45 1.67137237E-06 0.00000000E+00-4.94893210E-07 7.42334262E-07 0.00000000E+00
 4 46-3.78665394E-06-1.90939132E-05 3.06936168E-04-5.49892399E-05-5.54228387E-06
 4 47-5.19652594E-06 0.00000000E+00 4.11302926E-05 6.38258627E-05 0.00000000E+00
 4 48 3.82269194E-06 3.57929047E-05 0.00000000E+00-1.66820644E-07 4.37369943E-06
 4 49-4.20687878E-06 6.40016886E-06 0.00000000E+00 0.00000000E+00-1.41310949E-06
 4 50-7.65884178E-07 2.17899367E-06-4.27552619E-06 0.00000000E+00 0.00000000E+00
 4 51 8.76895790E-07-2.52588949E-07 0.00000000E+00-4.03450626E-07 0.00000000E+00
 4 52-1.67137237E-06 0.00000000E+00 4.94893210E-07 7.42334262E-07 0.00000000E+00
 4 53 0.00000000E+00 0.00000000E+00 0.00000000E+00 0.00000000E+00 0.00000000E+00
 4 54 4.40299131E-06 0.00000000E+00 0.00000000E+00-7.41389383E-06 0.00000000E+00
 4 55 0.00000000E+00 2.91718080E-05 0.00000000E+00 0.00000000E+00 0.00000000E+00
 4 56 0.00000000E+00 1.85964878E-06 0.00000000E+00 0.00000000E+00 0.00000000E+00
 4 57 0.00000000E+00 0.00000000E+00-4.92275150E-06 0.00000000E+00 0.00000000E+00
 4 58 0.00000000E+00-2.60576217E-07 0.00000000E+00 4.64445602E-07 0.00000000E+00
 4 59 0.00000000E+00 0.00000000E+00 0.00000000E+00-1.14845922E-07 0.00000000E+00
 4 60 0.00000000E+00 0.00000000E+00 0.00000000E+00 0.00000000E+00 0.00000000E+00
 4 61-9.08730511E-06 0.00000000E+00 0.00000000E+00 1.39998854E-05 0.00000000E+00
 4 62 0.00000000E+00-1.82971128E-05 0.00000000E+00 0.00000000E+00 0.00000000E+00
 4 63 0.00000000E+00 6.58712837E-07 0.00000000E+00-8.36221096E-06 0.00000000E+00
 4 64 0.00000000E+00 0.00000000E+00-5.04152181E-06 0.00000000E+00 4.56021186E-05
 4 65 0.00000000E+00-1.16196385E-05 0.00000000E+00-5.19646030E-06 0.00000000E+00
 4 66 0.00000000E+00 0.00000000E+00 0.00000000E+00 2.07858412E-05-5.18122360E-06
 4 67 0.00000000E+00 0.00000000E+00 0.00000000E+00 0.00000000E+00 0.00000000E+00
 4 68-9.08730511E-06 0.00000000E+00 0.00000000E+00 1.39998854E-05 0.00000000E+00
 4 69 0.00000000E+00-1.82971128E-05 0.00000000E+00 0.00000000E+00 0.00000000E+00
 4 70 0.00000000E+00 6.58712837E-07 0.00000000E+00 8.36221096E-06 0.00000000E+00
 4 71 0.00000000E+00 0.00000000E+00-5.04152181E-06 0.00000000E+00-4.56021186E-05
 4 72 0.00000000E+00-1.16196385E-05 0.00000000E+00-5.19646030E-06 0.00000000E+00
 4 73 0.00000000E+00 0.00000000E+00 0.00000000E+00 2.07858412E-05 5.18122360E-06
 4 74 0.00000000E+00 0.00000000E+00 0.00000000E+00 0.00000000E+00 0.00000000E+00