 !#############################################################################
 !                   D_3h RHF GEOMETRY OPTIMIZATION AND HESSIAN TEMPLATE
 ! ---------------------------------------------------------------------------
 ! Replace the symmetry-correct coordinates, should only be two atoms.  
 ! The hydrogen or fluorine should have only one non-zero x,y,z coordinate.
 ! 
 ! Basis set?   gbasis=ccd for 2nd row, 
 !                         cct 3rd/4th,
 !                   SPKrTZP for heavy,
 !                   SPKrTZC beyond 4th
 ! 
 !#############################################################################
 $system kdiag=3 mwords=1000 memddi=25000 parall=.t. $end
 $contrl runtyp=energy ispher=1 $end
 $contrl icut=9 itol=20 inttyp=rysquad qmttol=1.0d-05 nosym=1 $end
 $contrl scftyp=mcscf  mult=3 maxit=200 icharg=0 mplevl=2 $end
 $scf    npunch=2 conv=1.0d-06 dirscf=.t. $end
 $force  method=seminum $end
 $trans  dirtrf=.t. $end
 $statpt hssend=.t. $end
 $basis  gbasis=SPKrTZP $end
 !#############################################################################
 !
 !                       TURN ON THIS SECTION IF HEAVY ATOM
 !
 !#############################################################################
 !
 $contrl relwfn=LUT-IOTC $end
 $scf  diis=.t. soscf=.f. ethrsh=10.0 $end
 -guess iorder(43)=44 iorder(44)=43 $end
 $gmcpt nsolut=100 $end
 !
 !#############################################################################
 !
 ! TURN ON THIS SECTION IF GMCPT, CHANGE runtyp=energy, scftyp=mcscf, change nosym=1
 !
 !#############################################################################
 $guess  guess=moread norb=369 purify=.t. norder=1 $end
 $mcscf  cistep=gmcci fullnr=.t. finci=mos
         acurcy=1.d-6 maxit=100 $end
 $mrmp   mrpt=gmcpt rdvecs=.f. $end
 $gmcpt  nmofzc=19 nmodoc=24 nmoact=8 nelact=10 stsym(1)=A
         reftyp=ormas nspace=1 mstart(1)=44 mine(1)=10 maxe(1)=10
         kstate(1)=1,1,1,1
         wstate(1)=1,1,1,1
         iwgt=0 thrwgt=-1.0 krot=.f. kszdoe=.f. knospn=.f.
         thrde=-1.0 edshft=0.02 maxbas=800 $end
 !#############################################################################
 !
 !             TURN OFF THIS SECTION IF temp.inp, add C1
 !
 !    IF SOC, $transt $end, turn knospn=.t., restart from gmcpt states calc
 !
 !#############################################################################
 $data
 Iron pentacarbonyl optimization
 C1
 FE         26.0  -0.0000000000   0.0000000000   0.0000000000
 C           6.0  -0.8824444078   1.5284385491   0.0000000000
 C           6.0  -0.8824444078  -1.5284385491   0.0000000000
 C           6.0   1.7648888155   0.0000000000   0.0000000000
 O           8.0  -1.4586915946   2.5265279545   0.0000000000
 O           8.0  -1.4586915946  -2.5265279545   0.0000000000
 O           8.0   2.9173831893   0.0000000000   0.0000000000
 C           6.0   0.0000000000   0.0000000000  -1.6781093310
 C           6.0  -0.0000000000   0.0000000000   1.6781093310
 O           8.0  -0.0000000000   0.0000000000  -2.8433375200
 O           8.0  -0.0000000000   0.0000000000   2.8433375200
 $end
Semi-canonical MOs --- generated at Tue Mar 26 12:34:27 2024
 $VEC   
 1  1 9.97431772E-01 1.19233720E-02 3.42117995E-03-7.22580845E-03 2.27993744E-03
 1  2-3.52574822E-03 7.05095004E-04-7.92139546E-05-1.20431719E-11 0.00000000E+00
 1  3 0.00000000E+00-1.85066731E-11 0.00000000E+00 0.00000000E+00 6.16557055E-11
 1  4 3.14794573E-11 4.21790234E-11-1.92662700E-10-1.30667882E-10-8.00217352E-11
 1  5 3.96577907E-10 2.90120453E-10 6.35256409E-11-3.53505141E-10-1.15064460E-09
 1  6 9.14722077E-10 4.55116123E-06 4.55113503E-06-9.10229626E-06 0.00000000E+00
 1  7 0.00000000E+00 0.00000000E+00-1.93045634E-05-1.93044202E-05 3.86089836E-05
 1  8 4.46266305E-11 0.00000000E+00 0.00000000E+00 1.37334034E-04 1.37333496E-04
 1  9-2.74667530E-04-2.32018301E-10 1.42497865E-11 0.00000000E+00-5.06363998E-05
 1 10-5.06355451E-05 1.01271945E-04 3.05529554E-10-2.20006024E-11 0.00000000E+00
 1 11 1.60386530E-05 0.00000000E+00 0.00000000E+00 0.00000000E+00 0.00000000E+00
 1 12-2.15180919E-05 0.00000000E+00-1.75363772E-11 0.00000000E+00 0.00000000E+00
 1 13-1.12811249E-04 0.00000000E+00-2.95110974E-11 0.00000000E+00 1.99964337E-11
 1 14 1.51352225E-04 1.95968583E-11-5.16431962E-11 0.00000000E+00 0.00000000E+00
 1 15-1.77305032E-05-1.77305072E-05-4.72813847E-05 0.00000000E+00 0.00000000E+00
 1 16 0.00000000E+00 0.00000000E+00 0.00000000E+00 0.00000000E+00-1.03819537E-05
 1 17 4.15277125E-05 4.15277196E-05 0.00000000E+00 0.00000000E+00 0.00000000E+00
 1 18-2.99291534E-05-1.93918206E-04 5.33128115E-04 3.72226777E-05-1.45164521E-05
 1 19 2.51432557E-05 0.00000000E+00 1.12136466E-04-1.94226108E-04 0.00000000E+00
 1 20-1.05911312E-04 1.83443838E-04-3.86525805E-11 1.56648412E-06-5.23216644E-06
 1 21 3.66568232E-06 6.79863436E-06 0.00000000E+00 0.00000000E+00-2.59218755E-05
 1 22 1.42021412E-04-1.16099537E-04-1.67942878E-04 0.00000000E+00 0.00000000E+00
 1 23-3.73034337E-05-2.80864516E-05 0.00000000E+00-1.25606337E-05 0.00000000E+00
 1 24 7.90553804E-05 0.00000000E+00-2.90075722E-05 5.02425626E-05 0.00000000E+00
 1 25-2.99291776E-05-1.93918364E-04 5.33128888E-04 3.72214965E-05-1.45164613E-05
 1 26-2.51432656E-05 0.00000000E+00 1.12136463E-04 1.94226096E-04 0.00000000E+00
 1 27-1.05912257E-04-1.83445292E-04-3.91223670E-11 1.56648183E-06-5.23217176E-06
 1 28 3.66568994E-06-6.79863873E-06 0.00000000E+00 0.00000000E+00-2.59218870E-05
 1 29 1.42021529E-04-1.16099642E-04 1.67943054E-04 0.00000000E+00 0.00000000E+00
 1 30-3.73034493E-05 2.80864626E-05 0.00000000E+00 1.25606419E-05 0.00000000E+00
 1 31 7.90554185E-05 0.00000000E+00-2.90075894E-05-5.02425856E-05 0.00000000E+00
 1 32-2.99291287E-05-1.93917883E-04 5.33128487E-04 3.72221920E-05 2.90329470E-05
 1 33 0.00000000E+00 0.00000000E+00-2.24272690E-04 0.00000000E+00 0.00000000E+00
 1 34 2.11823444E-04 9.27029982E-11-3.87068744E-11-8.63137836E-06 4.96573813E-06
 1 35 3.66564024E-06 0.00000000E+00 0.00000000E+00 0.00000000E+00 2.25992629E-04
 1 36-1.09893133E-04-1.16099496E-04 2.16533929E-11 0.00000000E+00 0.00000000E+00
 1 37-8.59505375E-05 0.00000000E+00 0.00000000E+00 0.00000000E+00 0.00000000E+00
 1 38 5.72996718E-05 0.00000000E+00 5.80150749E-05 0.00000000E+00 0.00000000E+00
 1 39-4.13449375E-07 1.67504797E-05 5.09832353E-06-3.68283879E-04-1.29545628E-06
 1 40 2.24379792E-06 0.00000000E+00 2.94670458E-05-5.10384601E-05 0.00000000E+00
 1 41-5.33628586E-05 9.24269282E-05 2.30393487E-11-1.15264955E-06 5.82684950E-06
 1 42-4.67419995E-06-6.97956426E-06 0.00000000E+00 0.00000000E+00-4.20334927E-06
 1 43 1.99643947E-05-1.57610454E-05-2.41676530E-05 0.00000000E+00 0.00000000E+00
 1 44-6.66785040E-06-4.75633179E-06 0.00000000E+00-2.12709088E-06 0.00000000E+00
 1 45 1.38581405E-05 0.00000000E+00-4.91228044E-06 8.50837961E-06 0.00000000E+00
 1 46-4.13444896E-07 1.67505102E-05 5.09826044E-06-3.68285272E-04-1.29545368E-06
 1 47-2.24379795E-06 0.00000000E+00 2.94670436E-05 5.10384665E-05 0.00000000E+00
 1 48-5.33630182E-05-9.24272818E-05 2.40134055E-11-1.15265288E-06 5.82685564E-06
 1 49-4.67420276E-06 6.97956887E-06 0.00000000E+00 0.00000000E+00-4.20334030E-06
 1 50 1.99643822E-05-1.57610419E-05 2.41676507E-05 0.00000000E+00 0.00000000E+00
 1 51-6.66784229E-06 4.75633677E-06 0.00000000E+00 2.12709232E-06 0.00000000E+00
 1 52 1.38581405E-05 0.00000000E+00-4.91229133E-06-8.50838772E-06 0.00000000E+00
 1 53-4.13444368E-07 1.67504315E-05 5.09827320E-06-3.68284573E-04 2.59087878E-06
 1 54 0.00000000E+00 0.00000000E+00-5.89338947E-05 0.00000000E+00 0.00000000E+00
 1 55 1.06725740E-04-3.91150526E-11 2.43884851E-11 9.31664941E-06-4.64245562E-06
 1 56-4.67419379E-06 0.00000000E+00 0.00000000E+00 0.00000000E+00 3.20480348E-05
 1 57-1.62870728E-05-1.57609620E-05 0.00000000E+00 0.00000000E+00 0.00000000E+00
 1 58-1.49059760E-05 0.00000000E+00 0.00000000E+00 0.00000000E+00 0.00000000E+00
 1 59 1.01738802E-05 0.00000000E+00 9.82458516E-06 0.00000000E+00 0.00000000E+00
 1 60-4.43661461E-05-2.54062269E-04 7.71814739E-04-1.28751461E-06-1.89276917E-11
 1 61 0.00000000E+00-2.99621554E-05-1.34965108E-11 0.00000000E+00 3.10164101E-04
 1 62 4.32334091E-11 1.27827828E-11-2.03483942E-04-2.47961546E-06-2.47957672E-06
 1 63 4.95919218E-06 0.00000000E+00-4.89861886E-11 0.00000000E+00-1.75808336E-04
 1 64-1.75808385E-04 3.51616721E-04 0.00000000E+00 7.06352148E-11 0.00000000E+00
 1 65-1.58606553E-07 0.00000000E+00 9.10232724E-05 0.00000000E+00-6.10602451E-05
 1 66 2.12745001E-07-6.10602897E-05 4.94066913E-11 0.00000000E+00 0.00000000E+00
 1 67-4.43661343E-05-2.54062218E-04 7.71814935E-04-1.28819630E-06-2.29987454E-11
 1 68 0.00000000E+00 2.99621785E-05 0.00000000E+00 0.00000000E+00-3.10164301E-04
 1 69 5.43241239E-11 1.30532860E-11 2.03485589E-04-2.47959857E-06-2.47956139E-06
 1 70 4.95915996E-06 0.00000000E+00 4.65728512E-11 0.00000000E+00-1.75808279E-04
 1 71-1.75808326E-04 3.51616605E-04 0.00000000E+00-7.86290512E-11 0.00000000E+00
 1 72-1.58602011E-07 0.00000000E+00-9.10233558E-05 0.00000000E+00 6.10603017E-05
 1 73 2.12744471E-07 6.10603450E-05 4.38168848E-11 0.00000000E+00 0.00000000E+00
 1 74 6.64209498E-07 2.35303131E-05-8.71561214E-05-3.79187900E-04 0.00000000E+00
 1 75 0.00000000E+00-2.94477826E-06-2.11785489E-11 0.00000000E+00 4.84081253E-05
 1 76 4.35247680E-11 0.00000000E+00-1.23646446E-04-3.45456784E-06-3.45455841E-06
 1 77 6.90912625E-06 0.00000000E+00 0.00000000E+00 0.00000000E+00-2.07116854E-05
 1 78-2.07116588E-05 4.14233442E-05 0.00000000E+00 2.85857404E-11 0.00000000E+00
 1 79-1.35452772E-07 0.00000000E+00 1.62248637E-05 0.00000000E+00-1.08839739E-05
 1 80 1.81729806E-07-1.08839650E-05 0.00000000E+00 0.00000000E+00 0.00000000E+00
 1 81 6.64192520E-07 2.35302049E-05-8.71554239E-05-3.79189612E-04 0.00000000E+00
 1 82 0.00000000E+00 2.94480426E-06-2.06578030E-11 0.00000000E+00-4.84083227E-05
 1 83 4.33059279E-11 0.00000000E+00 1.23646894E-04-3.45458293E-06-3.45457323E-06
 1 84 6.90915616E-06 0.00000000E+00 0.00000000E+00 0.00000000E+00-2.07116732E-05
 1 85-2.07116443E-05 4.14233176E-05 0.00000000E+00-2.81415364E-11 0.00000000E+00
 1 86-1.35452897E-07 0.00000000E+00-1.62248649E-05 0.00000000E+00 1.08839723E-05
 1 87 1.81729481E-07 1.08839682E-05 0.00000000E+00 0.00000000E+00 0.00000000E+00
 2  1-3.20539065E-01 1.04838346E+00 2.75124420E-02-1.42956836E-02 4.52812240E-03
 2  2-1.09234846E-02 2.42856447E-03-2.54095110E-04-2.69951066E-10-3.32100498E-11
 2  3 0.00000000E+00 2.68772144E-11 0.00000000E+00-3.07997729E-11-2.23365140E-10
 2  4-7.76491848E-11 7.74198877E-11 5.25635474E-10 2.59067879E-10-1.60022784E-10
 2  5-5.77356971E-10-5.73770705E-10 2.80510655E-10-3.49410647E-09 5.02125918E-10
 2  6-2.60303880E-09-9.89718903E-05-9.89717834E-05 1.97943674E-04 0.00000000E+00
 2  7 0.00000000E+00 0.00000000E+00-2.16348045E-04-2.16347911E-04 4.32695956E-04
 2  8-3.29437526E-11-2.40709538E-11 0.00000000E+00 7.00045974E-04 7.00045212E-04
 2  9-1.40009119E-03 3.22849744E-10 8.00831640E-11 0.00000000E+00-5.20142656E-04
 2 10-5.20140385E-04 1.04028304E-03-2.84279399E-10-1.26783621E-10 0.00000000E+00
 2 11 7.25746585E-05 0.00000000E+00 0.00000000E+00 0.00000000E+00 0.00000000E+00
 2 12-9.73691067E-05 0.00000000E+00-1.62219773E-11 0.00000000E+00 0.00000000E+00
 2 13-4.11918881E-04 0.00000000E+00 0.00000000E+00 0.00000000E+00 0.00000000E+00
 2 14 5.52647075E-04 0.00000000E+00 1.00598379E-10 1.39295135E-11 0.00000000E+00
 2 15-7.61385844E-05-7.61385365E-05-2.03036051E-04 0.00000000E+00 0.00000000E+00
 2 16 0.00000000E+00 0.00000000E+00 0.00000000E+00 0.00000000E+00-4.45820796E-05
 2 17 1.78328650E-04 1.78328566E-04 0.00000000E+00 0.00000000E+00 0.00000000E+00
 2 18 6.61778287E-06-7.82432107E-04 1.24266145E-03 9.94477649E-05-1.31178448E-04
 2 19 2.27207871E-04 0.00000000E+00 3.46255292E-04-5.99731577E-04 1.82826258E-11
 2 20-2.97679824E-04 5.15596793E-04-6.10385404E-11 3.45873479E-06-2.05286292E-05
 2 21 1.70698944E-05 2.39873805E-05 0.00000000E+00 0.00000000E+00-7.38857629E-05
 2 22 4.21786267E-04-3.47900504E-04-4.95671732E-04-1.12535673E-11 3.36764310E-11
 2 23-1.40114279E-04-1.04887224E-04 0.00000000E+00-4.69070212E-05 0.00000000E+00
 2 24 2.96310088E-04 0.00000000E+00-1.08327056E-04 1.87627999E-04 0.00000000E+00
 2 25 6.61782129E-06-7.82431912E-04 1.24266072E-03 9.94477437E-05-1.31178427E-04
 2 26-2.27207834E-04 0.00000000E+00 3.46255305E-04 5.99731568E-04 1.87538518E-11
 2 27-2.97679584E-04-5.15596462E-04-6.48708989E-11 3.45871683E-06-2.05286188E-05
 2 28 1.70699020E-05-2.39873679E-05 0.00000000E+00 0.00000000E+00-7.38857232E-05
 2 29 4.21786019E-04-3.47900295E-04 4.95671338E-04 0.00000000E+00-3.28636077E-11
 2 30-1.40114244E-04 1.04887192E-04 0.00000000E+00 4.69070271E-05 0.00000000E+00
 2 31 2.96310027E-04 0.00000000E+00-1.08327043E-04-1.87627962E-04 0.00000000E+00
 2 32 6.61785357E-06-7.82431917E-04 1.24265766E-03 9.94512515E-05 2.62357081E-04
 2 33 0.00000000E+00-1.51327647E-11-6.92512688E-04-3.00936374E-11 3.33477411E-11
 2 34 5.95353789E-04-3.33582051E-11-4.85987991E-11-3.25225645E-05 1.54525757E-05
 2 35 1.70699888E-05 0.00000000E+00 0.00000000E+00 0.00000000E+00 6.69621134E-04
 2 36-3.21721160E-04-3.47899974E-04-4.67547484E-11 0.00000000E+00 0.00000000E+00
 2 37-3.21784561E-04 0.00000000E+00 0.00000000E+00 0.00000000E+00 0.00000000E+00
 2 38 2.15065002E-04 0.00000000E+00 2.16654290E-04 0.00000000E+00 0.00000000E+00
 2 39-1.76240675E-05 7.64222471E-05 1.90949801E-04-1.01214981E-03 2.27754914E-05
 2 40-3.94481210E-05 0.00000000E+00 1.61699602E-04-2.80071678E-04 0.00000000E+00
 2 41-1.09730630E-04 1.90058919E-04-1.43482256E-11-4.53849684E-06 2.43294244E-05
 2 42-1.97909276E-05-2.88679815E-05 0.00000000E+00 0.00000000E+00-1.73891155E-05
 2 43 7.78280477E-05-6.04389322E-05-9.52171116E-05 0.00000000E+00 0.00000000E+00
 2 44-2.33570281E-05-1.61784667E-05 0.00000000E+00-7.23519777E-06 0.00000000E+00
 2 45 4.80457738E-05 0.00000000E+00-1.67090323E-05 2.89408885E-05 0.00000000E+00
 2 46-1.76240626E-05 7.64222449E-05 1.90949984E-04-1.01214898E-03 2.27754875E-05
 2 47 3.94480969E-05 0.00000000E+00 1.61699602E-04 2.80071739E-04 0.00000000E+00
 2 48-1.09730521E-04-1.90058643E-04 0.00000000E+00-4.53848613E-06 2.43294112E-05
 2 49-1.97909251E-05 2.88679697E-05 0.00000000E+00 0.00000000E+00-1.73891520E-05
 2 50 7.78280860E-05-6.04389340E-05 9.52171188E-05 0.00000000E+00 0.00000000E+00
 2 51-2.33570335E-05 1.61784693E-05 0.00000000E+00 7.23519095E-06 0.00000000E+00
 2 52 4.80457756E-05 0.00000000E+00-1.67090269E-05-2.89408852E-05 0.00000000E+00
 2 53-1.76241360E-05 7.64221321E-05 1.90951514E-04-1.01214402E-03-4.55506005E-05
 2 54 0.00000000E+00 0.00000000E+00-3.23399863E-04 2.69485079E-11 0.00000000E+00
 2 55 2.19459261E-04 3.54566866E-11 0.00000000E+00 3.87634191E-05-1.89725011E-05
 2 56-1.97909180E-05 0.00000000E+00 0.00000000E+00 0.00000000E+00 1.25436974E-04
 2 57-6.49978595E-05-6.04391145E-05-2.87391860E-11 0.00000000E+00 0.00000000E+00
 2 58-5.13789044E-05 0.00000000E+00 0.00000000E+00 0.00000000E+00 0.00000000E+00
 2 59 3.55139910E-05 0.00000000E+00 3.34180428E-05 0.00000000E+00 0.00000000E+00
 2 60-2.96445439E-04-6.35409418E-04 2.74912760E-03 7.14885308E-06 0.00000000E+00
 2 61 0.00000000E+00 7.05988549E-05-2.95164609E-11 3.80585617E-11 1.52671632E-03
 2 62-9.73392421E-11-7.12123237E-11-7.44080475E-04-1.39339509E-05-1.39339873E-05
 2 63 2.78679381E-05 0.00000000E+00 0.00000000E+00 0.00000000E+00-6.00910013E-04
 2 64-6.00909854E-04 1.20181987E-03 1.59701283E-11 1.54282640E-11-2.84453845E-11
 2 65 1.56826221E-06 0.00000000E+00 4.23577751E-04 0.00000000E+00-2.84144574E-04
 2 66-2.10404170E-06-2.84144613E-04 0.00000000E+00 1.33949897E-11 0.00000000E+00
 2 67-2.96445421E-04-6.35409388E-04 2.74912596E-03 7.15183582E-06-2.39514871E-11
 2 68 0.00000000E+00-7.05988238E-05 1.03561084E-11 2.21349963E-11-1.52671683E-03
 2 69-2.57666138E-11-7.92827223E-11 7.44076567E-04-1.39339351E-05-1.39339658E-05
 2 70 2.78679009E-05 0.00000000E+00 1.90572606E-11 0.00000000E+00-6.00909802E-04
 2 71-6.00909627E-04 1.20181943E-03 1.67196302E-11-4.72487041E-11 3.05574543E-11
 2 72 1.56827917E-06-1.40354169E-11-4.23577830E-04 0.00000000E+00 2.84144625E-04
 2 73-2.10405159E-06 2.84144668E-04-1.31126356E-11 1.91855043E-11 0.00000000E+00
 2 74 1.92686461E-05 5.51933731E-05-1.35201199E-04-1.37060461E-03 2.54420930E-11
 2 75 0.00000000E+00-1.00665991E-04-6.58509977E-11-2.21447130E-11 1.59552985E-04
 2 76 5.32447870E-11 0.00000000E+00-4.75979840E-04-1.47105782E-05-1.47105634E-05
 2 77 2.94211417E-05 0.00000000E+00 0.00000000E+00 0.00000000E+00-7.60369133E-05
 2 78-7.60369235E-05 1.52073837E-04 0.00000000E+00 2.82393059E-11-2.36492635E-11
 2 79-7.12321080E-07 0.00000000E+00 5.34864778E-05 0.00000000E+00-3.58797953E-05
 2 80 9.55681642E-07-3.58798447E-05 0.00000000E+00 0.00000000E+00 0.00000000E+00
 2 81 1.92686324E-05 5.51933000E-05-1.35200676E-04-1.37060155E-03 0.00000000E+00
 2 82 0.00000000E+00 1.00666012E-04-5.53200372E-11-2.22643365E-11-1.59553172E-04
 2 83 2.23387988E-11 0.00000000E+00 4.75978788E-04-1.47105656E-05-1.47105592E-05
 2 84 2.94211248E-05 0.00000000E+00 0.00000000E+00 0.00000000E+00-7.60369915E-05
 2 85-7.60369997E-05 1.52073991E-04 0.00000000E+00-3.85931448E-11 2.43761481E-11
 2 86-7.12323841E-07 0.00000000E+00-5.34865008E-05 0.00000000E+00 3.58798017E-05
 2 87 9.55685285E-07 3.58798693E-05 0.00000000E+00 0.00000000E+00 0.00000000E+00
 3  1-1.57852761E-11-0.00000000E+00-4.07411034E-11 5.80071374E-11-3.48447804E-11
 3  2 1.61524660E-10-8.85357498E-11 3.35085013E-11-3.28336708E-02 9.96895919E-01
 3  3 7.40335815E-08-1.77053839E-05 5.37570618E-04 3.12840378E-11-2.98359420E-04
 3  4 9.05878903E-03 6.91904750E-10 8.27981346E-05-2.51391746E-03-2.13116254E-10
 3  5-3.75159893E-05 1.13906060E-03 1.16405616E-10-2.54272268E-05 7.72017270E-04
 3  6 3.28510100E-10 5.54392007E-07-5.54392935E-07-0.00000000E+00 1.94369503E-05
 3  7-0.00000000E+00-0.00000000E+00-5.17719355E-06 5.17721993E-06-2.60788964E-11
 3  8-1.81507645E-04-0.00000000E+00-0.00000000E+00 1.39561936E-05-1.39562929E-05
 3  9 9.92432163E-11 4.89292252E-04-0.00000000E+00 1.97828535E-11-1.99603301E-05
 3 10 1.99601932E-05 1.36828831E-10-6.99788869E-04-0.00000000E+00-7.95004230E-11
 3 11 4.26576153E-07-1.29515564E-05-0.00000000E+00-5.79211876E-06-0.00000000E+00
 3 12 1.90764306E-07-0.00000000E+00-7.63076271E-07 2.31684550E-05-0.00000000E+00
 3 13 1.40465095E-06-4.26482503E-05 1.22478306E-11-1.90728552E-05-0.00000000E+00
 3 14 6.28205754E-07-1.81751926E-11-2.51274276E-06 7.62914873E-05-0.00000000E+00
 3 15 3.31395133E-07 1.06045722E-07 1.26955365E-11-7.45360629E-06-0.00000000E+00
 3 16 1.26257316E-05-0.00000000E+00-0.00000000E+00-0.00000000E+00-3.84197643E-07
 3 17-1.97937719E-07 1.97915593E-07-0.00000000E+00-0.00000000E+00-6.93913423E-06
 3 18-5.09278626E-06-1.26604193E-05-1.66552191E-04-4.14601676E-04-1.31605570E-05
 3 19 2.15059256E-05-0.00000000E+00 5.97481902E-05-9.57485076E-05 2.45232567E-11
 3 20-3.12631816E-04 5.77839354E-04 1.51064641E-11-1.28957098E-06 5.67427623E-06
 3 21-4.38470526E-06-4.25878326E-06-0.00000000E+00-3.28162193E-11 1.19761344E-05
 3 22-3.44815613E-05 2.25054269E-05 3.61147474E-05-0.00000000E+00 2.70448393E-11
 3 23-4.69508548E-05-3.62523207E-05-0.00000000E+00-1.85718175E-05 1.10277846E-11
 3 24 1.02445019E-04-0.00000000E+00-3.94538369E-05 6.72094095E-05-0.00000000E+00
 3 25 4.90268397E-06 1.21878121E-05 1.60336492E-04 3.99128235E-04 1.27577201E-05
 3 26 2.06523073E-05 1.59635556E-11-5.80486954E-05-9.18686506E-05-3.91521823E-11
 3 27 2.98472581E-04 5.57712277E-04-2.14447169E-11 1.40205175E-06-5.62310232E-06
 3 28 4.22105057E-06-3.99277777E-06-0.00000000E+00-3.14985284E-11-1.21431908E-05
 3 29 3.38087115E-05-2.16655208E-05 3.43576510E-05-0.00000000E+00 1.54437403E-11
 3 30 4.51554098E-05-3.46656003E-05-0.00000000E+00-1.81476807E-05-1.17765356E-11
 3 31-9.86409511E-05-0.00000000E+00 3.80586116E-05 6.46564639E-05-0.00000000E+00
 3 32 1.90047351E-07 4.72431679E-07 6.21655554E-06 1.54737479E-05-9.40682784E-07
 3 33-1.36691162E-06-0.00000000E+00 4.20982852E-06 8.20656624E-06-0.00000000E+00
 3 34-2.45105677E-05 3.85437648E-05 1.94691962E-11-2.65987681E-07 1.02360759E-07
 3 35 1.63626922E-07 2.86864826E-06-0.00000000E+00-0.00000000E+00 1.86448391E-06
 3 36-1.02447787E-06-8.40006041E-07-1.09686030E-05-1.16777163E-11 1.43242720E-11
 3 37 4.20135964E-06-2.12941562E-06-0.00000000E+00 4.05174878E-06-0.00000000E+00
 3 38-2.72816163E-06-0.00000000E+00-2.90855382E-06-1.19483793E-06-0.00000000E+00
 3 39-2.69959887E-06 9.43352375E-06 2.56271934E-04-5.09953832E-04 1.22165113E-06
 3 40 4.32049457E-06-1.89643772E-11 5.20022571E-05-7.86122895E-05-0.00000000E+00
 3 41-5.46906423E-05 8.97124445E-05 1.02729794E-11-1.68551356E-06 9.00400659E-06
 3 42-7.31849303E-06-1.15051524E-05-0.00000000E+00-0.00000000E+00-2.26802476E-06
 3 43 4.18809751E-06-1.92007275E-06-1.11873607E-07-0.00000000E+00-1.47538685E-11
 3 44-2.11147583E-06-2.69628892E-06-0.00000000E+00 1.86491603E-08-0.00000000E+00
 3 45 4.65723022E-06-0.00000000E+00-1.82438814E-06 3.59880203E-06 1.09544547E-11
 3 46 2.59884140E-06-9.08148547E-06-2.46707569E-04 4.90921858E-04-1.61728351E-06
 3 47 4.41398655E-06-0.00000000E+00-5.08469331E-05-7.52248447E-05-0.00000000E+00
 3 48 5.29933374E-05 8.61658015E-05 1.00365599E-11 1.57417837E-06-8.61954319E-06
 3 49 7.04536482E-06-1.11080434E-05-0.00000000E+00-0.00000000E+00 2.56005566E-06
 3 50-4.40843932E-06 1.84838366E-06 1.43443270E-07 1.24094572E-11-1.99395360E-11
 3 51 2.04947611E-06-2.71373848E-06-0.00000000E+00 1.58996197E-07-0.00000000E+00
 3 52-4.47587955E-06-0.00000000E+00 1.72621881E-06 3.48186603E-06 1.47948770E-11
 3 53 1.00757587E-07-3.52066336E-07-9.56464846E-06 1.90319532E-05-1.16849688E-07
 3 54 6.82559805E-06-0.00000000E+00 3.51132728E-06 1.21512665E-05-0.00000000E+00
 3 55-3.92000874E-06-5.31817286E-06-0.00000000E+00-5.58349288E-07 2.85207104E-07
 3 56 2.73142184E-07-8.64982607E-07-0.00000000E+00-0.00000000E+00-9.92530789E-08
 3 57 2.75677485E-08 7.16853238E-08 6.72818356E-06-0.00000000E+00-1.38231489E-11
 3 58 2.00923062E-07 1.19162692E-06-0.00000000E+00-2.06415659E-06-0.00000000E+00
 3 59-1.19196500E-07-0.00000000E+00-1.50370075E-07 4.65421307E-07-0.00000000E+00
 3 60 2.89240942E-11 2.02148331E-11-3.64647423E-10-0.00000000E+00-3.11404035E-07
 3 61 9.45465842E-06-0.00000000E+00 7.97216590E-07-2.42048825E-05 4.60628227E-11
 3 62 2.61718853E-07-7.94606441E-06 4.28225331E-11 5.88124105E-08-5.87664914E-08
 3 63-4.59813689E-11 2.06129062E-06-9.45433016E-08 2.87003229E-06 2.06858788E-07
 3 64-2.06673632E-07-1.85229840E-10 7.24952459E-06 2.23963038E-06-6.79997632E-05
 3 65 1.05074563E-07-3.19023734E-06 2.28817508E-11-1.42671156E-06 1.88121949E-07
 3 66 4.69979162E-08-1.88152664E-07-1.87970235E-07 5.70686410E-06 6.59593147E-06
 3 67 2.90790882E-11 1.85159624E-11-8.95157417E-11-3.57799909E-10-3.11405599E-07
 3 68 9.45466974E-06-0.00000000E+00 7.97229170E-07-2.42048782E-05 1.40053820E-10
 3 69 2.61710824E-07-7.94607347E-06 4.82700371E-10 5.88101727E-08-5.88019604E-08
 3 70-0.00000000E+00 2.06128088E-06 9.45158615E-08-2.87003331E-06 2.06812339E-07
 3 71-2.06728042E-07-8.43616255E-11 7.24954198E-06-2.23962399E-06 6.79997622E-05
 3 72 1.05066996E-07-3.19024213E-06 4.36327649E-11-1.42672845E-06-1.88174008E-07
 3 73 4.69939597E-08 1.88115492E-07-1.87956127E-07 5.70688741E-06-6.59594269E-06
 3 74 4.54841230E-11-0.00000000E+00 2.38804553E-10 1.25046154E-10-1.73485382E-07
 3 75 5.26733035E-06-0.00000000E+00 4.55303089E-07-1.38238292E-05 9.27592685E-11
 3 76 6.69182458E-07-2.03181364E-05 7.89426702E-11 1.68855536E-08-1.68852919E-08
 3 77-0.00000000E+00 5.91959764E-07-7.88668473E-08 2.39459338E-06-4.35097289E-08
 3 78 4.34703084E-08 3.96189428E-11-1.52499084E-06 5.47745351E-07-1.66308930E-05
 3 79 4.15264552E-09-1.26181416E-07 1.20055894E-11-5.64190036E-08 1.03740583E-08
 3 80 1.85602141E-09-1.03903687E-08-7.42738002E-09 2.25709137E-07 3.64116953E-07
 3 81-4.45119370E-11-1.85687419E-11 6.61070724E-11-3.16197358E-10-1.73482983E-07
 3 82 5.26732334E-06-0.00000000E+00 4.55300588E-07-1.38238171E-05-0.00000000E+00
 3 83 6.69182794E-07-2.03181273E-05 7.77868820E-11 1.68845177E-08-1.68848787E-08
 3 84-0.00000000E+00 5.91986782E-07 7.88685037E-08-2.39459113E-06-4.34956437E-08
 3 85 4.34986659E-08-0.00000000E+00-1.52499320E-06-5.47749210E-07 1.66309014E-05
 3 86 4.16483705E-09-1.26194043E-07-0.00000000E+00-5.63949576E-08-1.03901413E-08
 3 87 1.85213608E-09 1.03876781E-08-7.43985133E-09 2.25702032E-07-3.64111221E-07
 4  1-8.77161734E-11 2.61907289E-10-1.24544501E-10 1.33878407E-10-2.94683149E-10
 4  2 9.73562782E-10-6.05226949E-09-4.42506426E-10 9.96895919E-01 3.28336708E-02
 4  3-4.56888390E-08 5.37570574E-04 1.77053866E-05-3.61501067E-11 9.05878920E-03
 4  4 2.98359412E-04-3.55686630E-10-2.51391770E-03-8.27981183E-05-5.10658710E-11
 4  5 1.13906095E-03 3.75159678E-05 3.75716946E-10 7.72019466E-04 2.54272007E-05
 4  6-1.80570960E-09-1.68329323E-05 1.68328672E-05 5.45031742E-11 6.40152530E-07
 4  7-3.27460833E-11 0.00000000E+00 1.57190404E-04-1.57190224E-04-1.90678489E-10
 4  8-5.97811603E-06 0.00000000E+00 0.00000000E+00-4.23740373E-04 4.23739323E-04
 4  9 1.05277624E-09 1.61152707E-05 2.03135369E-11-1.13844858E-11 6.06036224E-04
 4 10-6.06034492E-04-1.72864305E-09-2.30481072E-05 0.00000000E+00 2.77245806E-11
 4 11-1.29515392E-05-4.26567771E-07-1.23980816E-11-1.90772997E-07 2.04908452E-11
 4 12-5.79212693E-06 0.00000000E+00 2.31684401E-05 7.63073717E-07 0.00000000E+00
 4 13-4.26484511E-05-1.40467468E-06 5.16783838E-11-6.28171038E-07-3.62674728E-11
 4 14-1.90726944E-05-3.30884116E-11 7.62915958E-05 2.51273987E-06 0.00000000E+00
 4 15-1.00617182E-05-3.21960450E-06-4.46930842E-11-2.45492132E-07 1.57204147E-11
 4 16 4.15839466E-07 0.00000000E+00-2.53445671E-11 0.00000000E+00 1.16650843E-05
 4 17 6.00953248E-06-6.00946220E-06 0.00000000E+00 1.42321899E-11-2.28544931E-07
 4 18 2.72089586E-06 6.76371092E-06 8.89812443E-05 2.21503411E-04 5.68828842E-06
 4 19-1.22649702E-05-2.78368451E-11-2.38586751E-05 5.58085059E-05 3.41509312E-11
 4 20 2.04891051E-04-2.86852789E-04-3.87286850E-11-1.75169344E-06-5.90883703E-07
 4 21 2.34257715E-06 3.90235077E-06 0.00000000E+00 0.00000000E+00 2.93369526E-06
 4 22 9.09004955E-06-1.20237448E-05-2.55158444E-05 0.00000000E+00 0.00000000E+00
 4 23 2.57398910E-05 2.29200626E-05 0.00000000E+00 5.83416252E-06 2.95262924E-11
 4 24-5.44383005E-05-2.49653008E-11 1.99046129E-05-3.65846533E-05 0.00000000E+00
 4 25 3.05010325E-06 7.58209773E-06 9.97479615E-05 2.48304515E-04 6.54187913E-06
 4 26 1.36535056E-05-2.70644386E-11-2.77384557E-05-6.19880265E-05 3.57050052E-11
 4 27 2.25018311E-04 3.24253170E-04-2.57532091E-11-1.66302060E-06-9.62990975E-07
 4 28 2.62601158E-06-4.17410809E-06 0.00000000E+00 0.00000000E+00 2.13930318E-06
 4 29 1.13392863E-05-1.34785895E-05 2.78369602E-05 0.00000000E+00 2.54315816E-11
 4 30 2.87734952E-05-2.52558077E-05 0.00000000E+00-7.04356172E-06 2.52655428E-11
 4 31-6.10612523E-05-2.09543154E-11 2.24575575E-05 4.09277834E-05 0.00000000E+00
 4 32-5.77073238E-06-1.43462139E-05-1.88732890E-04-4.69809053E-04 2.85611281E-05
 4 33-4.50140010E-08 0.00000000E+00-1.27816762E-04 2.70300932E-07 0.00000000E+00
 4 34 7.44188307E-04 1.26941211E-06 3.80793500E-11 8.07599056E-06-3.10771041E-06
 4 35-4.96828015E-06 9.44750816E-08 0.00000000E+00 0.00000000E+00-5.66061462E-05
 4 36 3.11033898E-05 2.55027565E-05-3.61199129E-07 1.44816317E-11 0.00000000E+00
 4 37-1.27561382E-04-7.01279124E-08 0.00000000E+00 1.33450622E-07 0.00000000E+00
 4 38 8.28322755E-05 0.00000000E+00 8.83092780E-05-3.93641541E-08 0.00000000E+00
 4 39 1.44229956E-06-5.03982896E-06-1.36914722E-04 2.72446484E-04 6.05274909E-06
 4 40 1.56328770E-06 0.00000000E+00-1.58451686E-05 4.88912280E-05 0.00000000E+00
 4 41 2.39943389E-05-5.09458954E-05 0.00000000E+00 1.63640300E-06-5.54633461E-06
 4 42 3.90993160E-06 5.65609253E-06 0.00000000E+00 0.00000000E+00-4.51249693E-06
 4 43 3.48669563E-06 1.02580130E-06 3.87586585E-06-1.33546152E-11-1.62974810E-11
 4 44 8.72469851E-07-3.53967832E-07 0.00000000E+00 2.13359955E-06 0.00000000E+00
 4 45-2.60245976E-06 0.00000000E+00 1.43191862E-06-1.65870187E-06 0.00000000E+00
 4 46 1.61680919E-06-5.64962554E-06-1.53480865E-04 3.05410852E-04 5.95922952E-06
 4 47-1.27560960E-06 0.00000000E+00-1.92326224E-05-5.39580233E-05 0.00000000E+00
 4 48 2.75409233E-05 5.67384236E-05 0.00000000E+00 1.74377215E-06-6.12678989E-06
 4 49 4.38301774E-06-6.40087136E-06 0.00000000E+00 0.00000000E+00-4.35347224E-06
 4 50 3.20351574E-06 1.14995650E-06-3.87487284E-06 0.00000000E+00 0.00000000E+00
 4 51 1.00951429E-06 1.75776890E-07 0.00000000E+00-2.12773839E-06 0.00000000E+00
 4 52-2.90327092E-06 0.00000000E+00 1.54886538E-06 1.89190894E-06 0.00000000E+00
 4 53-3.05918224E-06 1.06892744E-05 2.90399432E-04-5.77855806E-04 3.54820418E-06
 4 54 2.24800872E-07-1.51168932E-11-1.06610223E-04 4.00210674E-07 1.52042636E-11
 4 55 1.19024123E-04-1.75173783E-07-2.48707797E-11 1.69526277E-05-8.65958569E-06
 4 56-8.29304199E-06-2.84957931E-08 3.35016462E-11 0.00000000E+00 3.01239052E-06
 4 57-8.36422249E-07-2.17596827E-06 2.21620775E-07 0.00000000E+00 0.00000000E+00
 4 58-6.10047287E-06 3.92415493E-08 0.00000000E+00-6.79779583E-08-2.97084998E-11
 4 59 3.61925852E-06 2.31646362E-11 4.56538470E-06 1.53298952E-08 0.00000000E+00
 4 60-3.29779976E-11 1.86790352E-11 8.33171788E-10 1.25746661E-09 9.45465944E-06
 4 61 3.11405453E-07 4.61047381E-11-2.42048873E-05-7.97216957E-07 1.16946838E-10
 4 62-7.94600252E-06-2.61708782E-07 1.56756064E-09-1.78514294E-06 1.78512133E-06
 4 63 2.57017372E-11 6.79025311E-08 2.87001466E-06 9.45297308E-08-6.27839903E-06
 4 64 6.27802943E-06 3.71847252E-10 2.38743215E-07-6.79997067E-05-2.23962832E-06
 4 65-3.19020831E-06-1.05078947E-07-5.86216413E-11-4.69859137E-08-5.71220248E-06
 4 66-1.42673317E-06 5.71228365E-06 5.70684675E-06 1.87964115E-07 2.17249831E-07
 4 67 0.00000000E+00 1.30598206E-10-2.65280185E-10 3.12149065E-09 9.45466909E-06
 4 68 3.11403928E-07-5.30749785E-11-2.42048888E-05-7.97224214E-07-6.99973588E-11
 4 69-7.94612779E-06-2.61719914E-07-4.17989956E-09-1.78514894E-06 1.78511268E-06