 !#############################################################################
 !                   D_3h RHF GEOMETRY OPTIMIZATION AND HESSIAN TEMPLATE
 ! ---------------------------------------------------------------------------
 ! Replace the symmetry-correct coordinates, should only be two atoms.  
 ! The hydrogen or fluorine should have only one non-zero x,y,z coordinate.
 ! 
 ! Basis set?   gbasis=ccd for 2nd row, 
 !                         cct 3rd/4th,
 !                   SPKrTZP for heavy,
 !                   SPKrTZC beyond 4th
 ! 
 !#############################################################################
 $system kdiag=3 mwords=1000 memddi=25000 parall=.t. $end
 $contrl runtyp=energy ispher=1 $end
 $contrl icut=9 itol=20 inttyp=rysquad qmttol=1.0d-05 nosym=1 $end
 $contrl scftyp=mcscf  mult=1 maxit=200 icharg=0 mplevl=2 $end
 $scf    npunch=2 conv=1.0d-06 dirscf=.t. $end
 $force  method=seminum $end
 $trans  dirtrf=.t. $end
 $statpt hssend=.t. $end
 $basis  gbasis=SPKrTZP $end
 !#############################################################################
 !
 !                       TURN ON THIS SECTION IF HEAVY ATOM
 !
 !#############################################################################
 !
 $contrl relwfn=LUT-IOTC $end
 $scf  diis=.t. soscf=.f. ethrsh=10.0 $end
 $guess iorder(35)=43 iorder(43)=35 $end
 $gmcpt nsolut=100 $end
 !
 !#############################################################################
 !
 ! TURN ON THIS SECTION IF GMCPT, CHANGE runtyp=energy, scftyp=mcscf, change nosym=1
 !
 !#############################################################################
 $guess  guess=moread norb=369 purify=.t. norder=1 $end
 $mcscf  cistep=gmcci fullnr=.t. finci=mos
         acurcy=1.d-6 maxit=100 $end
 $mrmp   mrpt=gmcpt rdvecs=.f. $end
 $gmcpt  nmofzc=19 nmodoc=23 nmoact=9 nelact=12 stsym(1)=A
         reftyp=ormas nspace=1 mstart(1)=43 mine(1)=12 maxe(1)=12
         kstate(1)=1
         wstate(1)=1
         iwgt=0 thrwgt=-1.0 krot=.f. kszdoe=.f. knospn=.f.
         thrde=-1.0 edshft=0.02 maxbas=800 $end
 !#############################################################################
 !
 !             TURN OFF THIS SECTION IF temp.inp, add C1
 !
 !    IF SOC, $transt $end, turn knospn=.t., restart from gmcpt states calc
 !
 !#############################################################################
 $data
 Iron pentacarbonyl optimization
 C1
 FE         26.0  -0.0000000000   0.0000000000   0.0000000000
 C           6.0  -0.8824444078   1.5284385491   0.0000000000
 C           6.0  -0.8824444078  -1.5284385491   0.0000000000
 C           6.0   1.7648888155   0.0000000000   0.0000000000
 O           8.0  -1.4586915946   2.5265279545   0.0000000000
 O           8.0  -1.4586915946  -2.5265279545   0.0000000000
 O           8.0   2.9173831893   0.0000000000   0.0000000000
 C           6.0   0.0000000000   0.0000000000  -1.6781093310
 C           6.0  -0.0000000000   0.0000000000   1.6781093310
 O           8.0  -0.0000000000   0.0000000000  -2.8433375200
 O           8.0  -0.0000000000   0.0000000000   2.8433375200
 $end
Semi-canonical MOs --- generated at Wed Mar 20 14:58:22 2024
 $VEC   
 1  1 9.97431324E-01 1.19419962E-02 3.44921125E-03-7.25487777E-03 2.25839465E-03
 1  2-3.50631179E-03 6.96822872E-04-7.89643107E-05 1.46172728E-11 0.00000000E+00
 1  3 0.00000000E+00-4.68949653E-11 0.00000000E+00 0.00000000E+00 7.54489387E-11
 1  4 0.00000000E+00 4.22213634E-11-1.82269426E-10 0.00000000E+00-4.39254979E-11
 1  5 3.26182875E-10 0.00000000E+00 4.58204638E-11-1.17391104E-10-2.63114122E-10
 1  6 3.27656277E-10 3.18132172E-06 3.18127106E-06-6.36259278E-06-2.12252292E-11
 1  7 0.00000000E+00 0.00000000E+00-1.70992904E-05-1.70992248E-05 3.41985152E-05
 1  8 0.00000000E+00 0.00000000E+00 0.00000000E+00 1.34435438E-04 1.34435128E-04
 1  9-2.68870566E-04-7.23752302E-11 1.82206773E-11 0.00000000E+00-4.77745232E-05
 1 10-4.77741733E-05 9.55486965E-05 1.63212015E-10-2.66136779E-11 0.00000000E+00
 1 11 1.58914978E-05 0.00000000E+00 0.00000000E+00 0.00000000E+00 0.00000000E+00
 1 12-2.13206766E-05 0.00000000E+00 0.00000000E+00 0.00000000E+00 0.00000000E+00
 1 13-1.12745769E-04 0.00000000E+00 0.00000000E+00 0.00000000E+00 0.00000000E+00
 1 14 1.51264333E-04 0.00000000E+00-1.01122843E-11 0.00000000E+00 0.00000000E+00
 1 15-1.77514017E-05-1.77514062E-05-4.73371110E-05 0.00000000E+00 0.00000000E+00
 1 16 0.00000000E+00 0.00000000E+00 0.00000000E+00 0.00000000E+00-1.03941876E-05
 1 17 4.15766571E-05 4.15766651E-05 0.00000000E+00 0.00000000E+00 0.00000000E+00
 1 18-3.02171932E-05-1.93191952E-04 5.33033151E-04 3.67566428E-05-1.43127005E-05
 1 19 2.47903330E-05 0.00000000E+00 1.12577857E-04-1.94990644E-04 0.00000000E+00
 1 20-1.05946568E-04 1.83504814E-04 1.37983881E-11 1.57058880E-06-5.23126594E-06
 1 21 3.66067714E-06 6.80184017E-06 0.00000000E+00 0.00000000E+00-2.58990906E-05
 1 22 1.41675483E-04-1.15776392E-04-1.67574398E-04 0.00000000E+00 0.00000000E+00
 1 23-3.73876914E-05-2.81252058E-05 0.00000000E+00-1.25779606E-05 0.00000000E+00
 1 24 7.92084387E-05 0.00000000E+00-2.90475870E-05 5.03118839E-05 0.00000000E+00
 1 25-3.02171895E-05-1.93191958E-04 5.33033114E-04 3.67563885E-05-1.43127006E-05
 1 26-2.47903269E-05 0.00000000E+00 1.12577830E-04 1.94990574E-04 0.00000000E+00
 1 27-1.05946713E-04-1.83505067E-04 1.41139245E-11 1.57059117E-06-5.23126511E-06
 1 28 3.66067394E-06-6.80184849E-06 0.00000000E+00 0.00000000E+00-2.58990718E-05
 1 29 1.41675461E-04-1.15776389E-04 1.67574412E-04 0.00000000E+00 0.00000000E+00
 1 30-3.73876906E-05 2.81252126E-05 0.00000000E+00 1.25779665E-05 0.00000000E+00
 1 31 7.92084470E-05 0.00000000E+00-2.90475964E-05-5.03118988E-05 0.00000000E+00
 1 32-3.02171698E-05-1.93191756E-04 5.33033142E-04 3.67564111E-05 2.86254077E-05
 1 33 0.00000000E+00 0.00000000E+00-2.25155518E-04 0.00000000E+00 0.00000000E+00
 1 34 2.11893356E-04 0.00000000E+00 1.60310233E-11-8.63212493E-06 4.97147545E-06
 1 35 3.66064947E-06 0.00000000E+00 0.00000000E+00 0.00000000E+00 2.25462518E-04
 1 36-1.09686173E-04-1.15776345E-04 2.82313802E-11-1.84742653E-11 0.00000000E+00
 1 37-8.61019200E-05 0.00000000E+00 0.00000000E+00 0.00000000E+00 0.00000000E+00
 1 38 5.74227152E-05 0.00000000E+00 5.80951325E-05 0.00000000E+00 0.00000000E+00
 1 39-3.72294237E-07 1.66667331E-05 5.69446031E-06-3.68136846E-04-1.40094605E-06
 1 40 2.42651258E-06 0.00000000E+00 2.94719506E-05-5.10469184E-05 0.00000000E+00
 1 41-5.33867375E-05 9.24684563E-05 0.00000000E+00-1.15840690E-06 5.83417436E-06
 1 42-4.67576746E-06-6.99260245E-06 0.00000000E+00 0.00000000E+00-4.19153553E-06
 1 43 1.99555848E-05-1.57640493E-05-2.41471075E-05 0.00000000E+00 0.00000000E+00
 1 44-6.66005424E-06-4.75269805E-06 0.00000000E+00-2.12548141E-06 0.00000000E+00
 1 45 1.38439590E-05 0.00000000E+00-4.90855859E-06 8.50189496E-06 0.00000000E+00
 1 46-3.72290514E-07 1.66667472E-05 5.69445700E-06-3.68137050E-04-1.40094468E-06
 1 47-2.42651369E-06 0.00000000E+00 2.94719537E-05 5.10469204E-05 0.00000000E+00
 1 48-5.33867606E-05-9.24685223E-05 0.00000000E+00-1.15841129E-06 5.83418028E-06
 1 49-4.67576899E-06 6.99260955E-06 0.00000000E+00 0.00000000E+00-4.19152440E-06
 1 50 1.99555734E-05-1.57640490E-05 2.41471004E-05 0.00000000E+00 0.00000000E+00
 1 51-6.66004647E-06 4.75270041E-06 0.00000000E+00 2.12548112E-06 0.00000000E+00
 1 52 1.38439549E-05 0.00000000E+00-4.90856494E-06-8.50189783E-06 0.00000000E+00
 1 53-3.72293904E-07 1.66667185E-05 5.69437628E-06-3.68136976E-04 2.80187385E-06
 1 54 0.00000000E+00 0.00000000E+00-5.89437564E-05 0.00000000E+00 0.00000000E+00
 1 55 1.06773470E-04 0.00000000E+00 0.00000000E+00 9.33046979E-06-4.65470395E-06
 1 56-4.67576584E-06 0.00000000E+00 0.00000000E+00 0.00000000E+00 3.20290502E-05
 1 57-1.62650481E-05-1.57640021E-05 0.00000000E+00 0.00000000E+00 0.00000000E+00
 1 58-1.48919477E-05 0.00000000E+00 0.00000000E+00 0.00000000E+00 0.00000000E+00
 1 59 1.01625154E-05 0.00000000E+00 9.81712904E-06 0.00000000E+00 0.00000000E+00
 1 60-4.36003582E-05-2.53332897E-04 7.65832586E-04 3.69265702E-07 0.00000000E+00
 1 61 0.00000000E+00-3.06006644E-05-1.78590567E-11 0.00000000E+00 3.08445339E-04
 1 62 3.07624969E-11 0.00000000E+00-1.99921547E-04-2.39156485E-06-2.39154051E-06
 1 63 4.78310536E-06 0.00000000E+00 0.00000000E+00 0.00000000E+00-1.74506601E-04
 1 64-1.74506631E-04 3.49013231E-04 0.00000000E+00 2.62550648E-11 0.00000000E+00
 1 65-1.66295169E-07 0.00000000E+00 9.06287162E-05 0.00000000E+00-6.07955828E-05
 1 66 2.23099447E-07-6.07955993E-05 1.03210737E-11 0.00000000E+00 0.00000000E+00
 1 67-4.36003526E-05-2.53332891E-04 7.65832662E-04 3.68875456E-07 0.00000000E+00
 1 68 0.00000000E+00 3.06006839E-05-1.35919508E-11 0.00000000E+00-3.08445447E-04
 1 69 4.62014275E-11 0.00000000E+00 1.99922230E-04-2.39155557E-06-2.39153071E-06
 1 70 4.78308628E-06 0.00000000E+00 0.00000000E+00 0.00000000E+00-1.74506579E-04
 1 71-1.74506609E-04 3.49013188E-04 0.00000000E+00-2.76475709E-11 0.00000000E+00
 1 72-1.66295681E-07 0.00000000E+00-9.06287462E-05 0.00000000E+00 6.07956014E-05
 1 73 2.23102547E-07 6.07956210E-05 0.00000000E+00 0.00000000E+00 0.00000000E+00
 1 74 5.85633692E-07 2.34671686E-05-8.57480540E-05-3.75018993E-04 0.00000000E+00
 1 75 0.00000000E+00-2.69258712E-06 0.00000000E+00 0.00000000E+00 4.88333543E-05
 1 76 0.00000000E+00 0.00000000E+00-1.22085638E-04-3.45798729E-06-3.45798928E-06
 1 77 6.91597657E-06 0.00000000E+00 0.00000000E+00 0.00000000E+00-2.06686190E-05
 1 78-2.06686014E-05 4.13372204E-05 0.00000000E+00 0.00000000E+00 0.00000000E+00
 1 79-1.33395098E-07 0.00000000E+00 1.61809154E-05 0.00000000E+00-1.08544906E-05
 1 80 1.78968895E-07-1.08544855E-05 0.00000000E+00 0.00000000E+00 0.00000000E+00
 1 81 5.85624928E-07 2.34671352E-05-8.57478092E-05-3.75019575E-04 0.00000000E+00
 1 82 0.00000000E+00 2.69259643E-06 0.00000000E+00 0.00000000E+00-4.88334306E-05
 1 83 0.00000000E+00 0.00000000E+00 1.22085770E-04-3.45799388E-06-3.45799264E-06
 1 84 6.91598653E-06 0.00000000E+00 0.00000000E+00 0.00000000E+00-2.06686201E-05
 1 85-2.06686009E-05 4.13372210E-05 0.00000000E+00 0.00000000E+00 0.00000000E+00
 1 86-1.33401619E-07 0.00000000E+00-1.61809163E-05 0.00000000E+00 1.08544884E-05
 1 87 1.78977403E-07 1.08544890E-05 0.00000000E+00 0.00000000E+00 0.00000000E+00
 2  1-3.20555325E-01 1.04841328E+00 2.73758341E-02-1.43467967E-02 4.92618018E-03
 2  2-1.11396651E-02 1.22315852E-03-2.46640232E-04 2.68623934E-09 3.71613546E-11
 2  3-1.12514184E-10 3.19575657E-10 5.21679277E-11-1.34620473E-10 1.17627516E-10
 2  4-7.07882066E-11-1.05302569E-10 2.31360121E-10 1.81778582E-10-2.48383237E-10
 2  5-4.13927897E-10-3.65216411E-10 3.52821101E-10-6.72989091E-09-6.43308319E-10
 2  6-2.87955879E-09-2.71958405E-04-2.71966539E-04 5.43924944E-04-2.49912580E-10
 2  7 1.97640377E-11 0.00000000E+00 2.12392296E-04 2.12393555E-04-4.24785851E-04
 2  8 2.57154121E-11-4.96137314E-11 0.00000000E+00 3.66838984E-04 3.66838038E-04
 2  9-7.33677022E-04 6.94615298E-11 1.54515240E-10 0.00000000E+00 8.95096881E-05
 2 10 8.95103533E-05-1.79020041E-04 6.13278163E-11-2.49460979E-10 0.00000000E+00
 2 11 8.93447045E-05-1.61375962E-11 0.00000000E+00 0.00000000E+00 0.00000000E+00
 2 12-1.19869211E-04 0.00000000E+00 7.10647124E-10 2.20056056E-11 0.00000000E+00
 2 13-4.66500836E-04 0.00000000E+00 0.00000000E+00-2.59515363E-11 1.01250636E-11
 2 14 6.25875836E-04 0.00000000E+00 7.16566348E-10 3.26350972E-11 0.00000000E+00
 2 15-1.24169528E-04-1.24169576E-04-3.31118764E-04 0.00000000E+00 0.00000000E+00
 2 16 0.00000000E+00 0.00000000E+00 0.00000000E+00 0.00000000E+00-7.27062086E-05
 2 17 2.90824901E-04 2.90824986E-04 0.00000000E+00 0.00000000E+00 0.00000000E+00
 2 18-1.03305376E-04-6.92765821E-04 1.68765723E-03 3.82657452E-05-7.18982828E-05
 2 19 1.24530933E-04 0.00000000E+00 5.15752120E-04-8.93309884E-04 0.00000000E+00
 2 20-3.74967981E-04 6.49463648E-04-7.27458200E-11 4.55326146E-06-1.84519488E-05
 2 21 1.38986873E-05 2.30054330E-05 0.00000000E+00 0.00000000E+00-8.60925946E-05
 2 22 4.54255127E-04-3.68162532E-04-5.40346990E-04 0.00000000E+00 4.64728122E-11
 2 23-1.72697217E-04-1.24814155E-04 0.00000000E+00-5.58185739E-05 0.00000000E+00
 2 24 3.60605105E-04 0.00000000E+00-1.28907475E-04 2.23274335E-04 0.00000000E+00
 2 25-1.03305342E-04-6.92765673E-04 1.68765721E-03 3.82649787E-05-7.18982780E-05
 2 26-1.24530943E-04 0.00000000E+00 5.15752076E-04 8.93309636E-04 0.00000000E+00
 2 27-3.74968592E-04-6.49464666E-04-6.82052393E-11 4.55326684E-06-1.84519302E-05
 2 28 1.38986634E-05-2.30054329E-05 0.00000000E+00 0.00000000E+00-8.60925631E-05
 2 29 4.54254976E-04-3.68162413E-04 5.40346794E-04 0.00000000E+00-4.52138051E-11
 2 30-1.72697220E-04 1.24814121E-04 0.00000000E+00 5.58185919E-05 0.00000000E+00
 2 31 3.60605095E-04 0.00000000E+00-1.28907461E-04-2.23274307E-04 0.00000000E+00
 2 32-1.03305455E-04-6.92765278E-04 1.68765305E-03 3.82710287E-05 1.43795852E-04
 2 33-1.84074882E-11-1.20354264E-11-1.03150738E-03-6.96130005E-11 1.84179976E-11
 2 34 7.49927015E-04 1.08396726E-11-5.01634461E-11-2.99548825E-05 1.60561409E-05
 2 35 1.38987415E-05 0.00000000E+00 0.00000000E+00 0.00000000E+00 7.24427730E-04
 2 36-3.56265677E-04-3.68162052E-04 0.00000000E+00 0.00000000E+00 0.00000000E+00
 2 37-3.88881836E-04 0.00000000E+00 0.00000000E+00-2.90648667E-11-1.06617929E-11
 2 38 2.63924591E-04 0.00000000E+00 2.57815142E-04 2.63166323E-11 0.00000000E+00
 2 39-4.23706390E-06 6.07519660E-05 2.53327127E-04-1.23396254E-03-8.16052032E-06
 2 40 1.41354552E-05 0.00000000E+00 1.57160649E-04-2.72209020E-04-1.59741291E-11
 2 41-1.60832061E-04 2.78570081E-04 0.00000000E+00-5.64818421E-06 2.65466405E-05
 2 42-2.08984563E-05-3.21948539E-05 0.00000000E+00 0.00000000E+00-1.69513519E-05
 2 43 8.40209439E-05-6.70695920E-05-1.00972267E-04 0.00000000E+00 0.00000000E+00
 2 44-2.44271590E-05-1.72019194E-05 0.00000000E+00-7.69290573E-06 0.00000000E+00
 2 45 5.05385345E-05 0.00000000E+00-1.77660617E-05 3.07717024E-05 0.00000000E+00
 2 46-4.23706646E-06 6.07519907E-05 2.53327264E-04-1.23396342E-03-8.16054012E-06
 2 47-1.41354314E-05 0.00000000E+00 1.57160604E-04 2.72209029E-04-1.44189772E-11
 2 48-1.60832235E-04-2.78570281E-04 0.00000000E+00-5.64818379E-06 2.65466404E-05
 2 49-2.08984566E-05 3.21948622E-05 0.00000000E+00 0.00000000E+00-1.69513758E-05
 2 50 8.40209117E-05-6.70695358E-05 1.00972207E-04 0.00000000E+00 0.00000000E+00
 2 51-2.44271820E-05 1.72019159E-05 0.00000000E+00 7.69289394E-06 0.00000000E+00
 2 52 5.05385381E-05 0.00000000E+00-1.77660345E-05-3.07716859E-05 0.00000000E+00
 2 53-4.23713682E-06 6.07519411E-05 2.53328348E-04-1.23395459E-03 1.63221793E-05
 2 54 3.04684316E-11 0.00000000E+00-3.14320926E-04 2.95967466E-11 0.00000000E+00
 2 55 3.21662398E-04 5.39349653E-11 0.00000000E+00 4.26440523E-05-2.17455952E-05
 2 56-2.08984571E-05 0.00000000E+00 0.00000000E+00 0.00000000E+00 1.34507434E-04
 2 57-6.74376404E-05-6.70697934E-05-3.21870908E-11 0.00000000E+00 0.00000000E+00
 2 58-5.42217500E-05 0.00000000E+00 0.00000000E+00 0.00000000E+00 0.00000000E+00
 2 59 3.72140198E-05 0.00000000E+00 3.55320915E-05 0.00000000E+00 0.00000000E+00
 2 60-1.45660363E-04-8.32795621E-04 2.43466930E-03 3.18906551E-04 0.00000000E+00
 2 61 0.00000000E+00-1.53741799E-04-4.47261420E-10-1.26949131E-11 1.49765395E-03
 2 62-5.08251024E-10-3.13180775E-11-1.94885993E-04-9.06893082E-06-9.06900147E-06
 2 63 1.81379323E-05 0.00000000E+00-5.86099758E-11 0.00000000E+00-5.46606050E-04
 2 64-5.46605942E-04 1.09321199E-03 0.00000000E+00 2.31032681E-11 2.03605652E-11
 2 65 6.74515579E-08 0.00000000E+00 4.19975068E-04 0.00000000E+00-2.81727781E-04
 2 66-9.03854688E-08-2.81727899E-04-1.07724204E-10 0.00000000E+00-1.42226079E-11
 2 67-1.45660368E-04-8.32795557E-04 2.43466764E-03 3.18909901E-04-2.60680408E-11
 2 68 0.00000000E+00 1.53741780E-04-4.30758718E-10-1.46736244E-11-1.49765449E-03
 2 69-3.70588720E-10-3.53045758E-11 1.94881725E-04-9.06890567E-06-9.06897048E-06
 2 70 1.81378762E-05 0.00000000E+00 7.39849324E-11 0.00000000E+00-5.46605825E-04
 2 71-5.46605693E-04 1.09321152E-03 0.00000000E+00-8.41328150E-11-2.04496170E-11
 2 72 6.74858417E-08 0.00000000E+00-4.19975117E-04 0.00000000E+00 2.81727816E-04
 2 73-9.04005495E-08 2.81727931E-04-1.38617555E-10 0.00000000E+00 1.49320406E-11
 2 74-1.91730793E-06 7.67848928E-05 2.23174943E-05-8.99586803E-04 1.97754798E-10
 2 75 1.66279970E-11-2.28114276E-05 9.41878389E-11 0.00000000E+00 3.17620610E-04
 2 76 5.28644092E-10 3.28906516E-11-2.69887454E-04-1.82627171E-05-1.82627547E-05
 2 77 3.65254718E-05 0.00000000E+00-2.31259016E-11 0.00000000E+00-8.90672255E-05
 2 78-8.90672054E-05 1.78134431E-04-1.08089267E-11 1.86994786E-10 0.00000000E+00
 2 79-4.00508644E-07 0.00000000E+00 5.81155755E-05 0.00000000E+00-3.89850733E-05
 2 80 5.37341100E-07-3.89851531E-05 0.00000000E+00 0.00000000E+00 0.00000000E+00
 2 81-1.91731221E-06 7.67847753E-05 2.23180204E-05-8.99583513E-04 1.98687022E-10
 2 82 1.89387954E-11 2.28114657E-05 1.28629753E-10 0.00000000E+00-3.17620788E-04
 2 83 4.91974186E-10 3.45364680E-11 2.69886348E-04-1.82627092E-05-1.82627549E-05
 2 84 3.65254641E-05 0.00000000E+00 3.50129658E-11 0.00000000E+00-8.90673116E-05
 2 85-8.90672840E-05 1.78134596E-04-1.09289869E-11-2.10082262E-10 0.00000000E+00
 2 86-4.00510642E-07 0.00000000E+00-5.81156086E-05 0.00000000E+00 3.89850890E-05
 2 87 5.37343163E-07 3.89851818E-05 0.00000000E+00 0.00000000E+00 0.00000000E+00
 3  1 9.13064169E-10-3.27424838E-09-4.27715319E-10 6.11548091E-10 2.14495946E-10
 3  2-2.58150797E-10-5.15322200E-09-5.58519903E-10 9.97474230E-01-5.81663366E-03
 3  3-2.99583290E-08 3.69953737E-04-2.15733525E-06 1.71854232E-10 9.24644255E-03
 3  4-5.39193675E-05 7.64412804E-11-2.79246484E-03 1.62838737E-05 6.86776930E-11
 3  5 1.62112393E-03-9.45334183E-06 2.90089564E-10 1.05185316E-03-6.13322119E-06
 3  6-1.96787697E-09-2.55412930E-05 2.55395614E-05 1.72101121E-09-1.71808556E-07
 3  7-1.91309235E-11-0.00000000E+00 1.52532247E-04-1.52532709E-04 4.52003071E-10
 3  8 1.02700092E-06-2.41720582E-11-0.00000000E+00-3.89270634E-04 3.89271664E-04
 3  9-1.02783662E-09-2.62103514E-06 4.37189589E-11-0.00000000E+00 8.47952437E-04
 3 10-8.47953445E-04 1.00969119E-09 5.70952525E-06-2.24022964E-11-0.00000000E+00
 3 11-2.83983301E-04 1.65603848E-06-0.00000000E+00 7.40584313E-07-0.00000000E+00
 3 12-1.27001494E-04-1.05801245E-11 5.08005073E-04-2.96239308E-06-0.00000000E+00
 3 13 9.19234967E-05-5.36020722E-07 1.47423902E-11-2.39732457E-07-1.25692151E-11
 3 14 4.11098672E-05-0.00000000E+00-1.64438180E-04 9.58879720E-07-0.00000000E+00
 3 15 1.07350778E-05 3.64644043E-06-4.21469758E-11-4.77631775E-08-0.00000000E+00
 3 16 7.90091909E-08-0.00000000E+00-2.02195987E-11-0.00000000E+00-1.26314651E-05
 3 17-6.22598863E-06 6.22605444E-06-0.00000000E+00 3.01614390E-11-4.19209260E-08
 3 18-7.08400613E-06-6.46830247E-05 3.18216327E-04 3.31652357E-04-1.14891706E-06
 3 19-2.32833024E-07-2.47272805E-11 4.42638209E-05-5.16174580E-05 4.04428802E-11
 3 20 2.79398272E-04-3.87024911E-04-1.39202558E-11-1.35749216E-06 7.81091204E-07
 3 21 5.76400955E-07 2.01393346E-06-0.00000000E+00-0.00000000E+00 4.12769916E-06
 3 22 4.52979064E-05-4.94256056E-05-9.75190595E-05-0.00000000E+00-1.83158467E-11
 3 23 1.96053656E-05 9.87876975E-06-0.00000000E+00 8.20400602E-06 2.16154442E-11
 3 24-3.92035707E-05-1.90366831E-11 1.29002126E-05-2.14577664E-05-0.00000000E+00
 3 25-6.94234421E-06-6.33894865E-05 3.11852207E-04 3.25020324E-04-1.15169641E-06
 3 26 2.43069679E-07-2.28682028E-11 4.36688865E-05 5.04178153E-05 4.25939555E-11
 3 27 2.74933831E-04 3.78637533E-04-1.26790644E-11-1.37203010E-06 8.07132011E-07
 3 28 5.64898086E-07-2.00145907E-06-0.00000000E+00-0.00000000E+00 4.61049787E-06
 3 29 4.38266684E-05-4.84371662E-05 9.59457017E-05-0.00000000E+00 1.41096099E-11
 3 30 1.92075524E-05-9.62127100E-06-0.00000000E+00-8.11439615E-06 2.26125836E-11
 3 31-3.84221143E-05-1.82979575E-11 1.26524786E-05 2.10226857E-05-0.00000000E+00
 3 32 1.40263316E-05 1.28072374E-04-6.30072407E-04-6.56670951E-04-7.38673505E-07
 3 33 7.50984935E-09-0.00000000E+00 1.32326583E-04-8.46072766E-08 1.71123297E-11
 3 34 9.40246964E-04-3.27344705E-07 2.80452432E-11 2.50203185E-06-1.36110736E-06
 3 35-1.14092449E-06-1.40381761E-08 1.94044036E-11-0.00000000E+00-2.14127834E-04
 3 36 1.16264604E-04 9.78632305E-05 1.90332857E-07-1.57816724E-11-0.00000000E+00
 3 37-8.08060986E-05-1.26285315E-08 1.27722423E-11 1.99304230E-08-0.00000000E+00
 3 38 5.88466992E-05-2.04526568E-11 4.95660585E-05-2.98747008E-09-0.00000000E+00
 3 39 1.18410873E-06-2.80301721E-07-1.51258639E-04 3.01730307E-04 3.85101401E-06
 3 40 1.61989810E-06-0.00000000E+00 1.07134310E-06 3.42340231E-05-0.00000000E+00
 3 41 2.66518015E-05-5.16279613E-05-0.00000000E+00 1.03624394E-06-4.72349559E-06
 3 42 3.68725165E-06 4.33784999E-06-0.00000000E+00-0.00000000E+00-1.27319585E-06
 3 43 9.76723994E-06-8.49404409E-06-7.91184670E-06-0.00000000E+00-0.00000000E+00
 3 44 6.28493089E-07-1.57768583E-06 1.35288241E-11 7.23621167E-07-0.00000000E+00
 3 45-2.43291555E-07-2.23083055E-11-5.99920408E-07 1.39306650E-06-0.00000000E+00
 3 46 1.16042670E-06-2.74711258E-07-1.48233632E-04 2.95696900E-04 3.87005953E-06
 3 47-1.64297488E-06-0.00000000E+00 1.46804511E-06-3.37907451E-05-0.00000000E+00
 3 48 2.60556309E-05 5.06322412E-05-0.00000000E+00 1.02978732E-06-4.64328809E-06
 3 49 3.61350077E-06-4.24159455E-06-0.00000000E+00-0.00000000E+00-1.27913640E-06
 3 50 9.60334919E-06-8.32421279E-06 7.73273633E-06-0.00000000E+00-0.00000000E+00
 3 51 6.13642191E-07 1.56885023E-06 1.42831419E-11-7.37245404E-07-0.00000000E+00
 3 52-2.39444588E-07-2.27542658E-11-5.83842804E-07-1.36758806E-06-0.00000000E+00
 3 53-2.34461361E-06 5.54609149E-07 2.99496915E-04-5.97424263E-04 1.03584273E-06
 3 54-2.80247471E-08-0.00000000E+00-5.76431999E-05-1.21931358E-07-0.00000000E+00
 3 55 1.14912386E-04 1.84540246E-08-0.00000000E+00 1.29432579E-05-5.64241693E-06
 3 56-7.30084095E-06 4.80368363E-09 1.57164226E-11-0.00000000E+00-2.56224420E-05
 3 57 8.80455965E-06 1.68178823E-05-1.05774356E-08-0.00000000E+00-0.00000000E+00
 3 58 1.08673821E-06-4.74107995E-09 1.78988211E-11 7.54537752E-09-4.02639019E-11
 3 59 1.52444579E-06 1.62501135E-11-2.98245810E-06-1.18455130E-09-0.00000000E+00
 3 60 9.41008202E-11-8.28454998E-11-1.29959341E-09-1.51312699E-10-1.67929745E-06
 3 61 9.78901623E-09-1.47080798E-10 2.91813133E-05-1.70154249E-07 4.04055110E-11
 3 62-1.46172630E-06 8.51489921E-09 9.29186811E-10-2.84275555E-06 2.84276739E-06
 3 63-0.00000000E+00-1.91409994E-08 3.57877516E-06-2.08550318E-08-1.02003089E-05
 3 64 1.02000797E-05 2.31413639E-10-6.86910967E-08-3.00583842E-05 1.75261657E-07
 3 65-3.90908424E-05 2.27947090E-07-0.00000000E+00 1.01945829E-07-1.25622624E-05
 3 66-1.74819955E-05 1.25622627E-05 6.99278640E-05-4.07768942E-07-8.45757263E-08
 3 67 1.59570032E-10-1.00966964E-10-2.43584100E-09 1.84041224E-09-1.67931056E-06
 3 68 9.78620473E-09 2.01986041E-10 2.91813177E-05-1.70150075E-07-1.39788760E-10
 3 69-1.46182969E-06 8.51387551E-09-3.53949643E-09-2.84275220E-06 2.84277023E-06
 3 70-1.39362391E-11-1.91418385E-08-3.57879977E-06 2.08557128E-08-1.02001540E-05
 3 71 1.02002817E-05-1.25550735E-10-6.86772662E-08 3.00584219E-05-1.75264955E-07
 3 72-3.90908430E-05 2.27948844E-07-0.00000000E+00 1.01946495E-07 1.25622685E-05
 3 73-1.74819929E-05-1.25622581E-05 6.99278622E-05-4.07771962E-07 8.45821356E-08
 3 74-3.94166124E-11 1.34300577E-11-2.74263515E-10 1.28828265E-09 9.40746503E-06
 3 75-5.48584607E-08 6.43260737E-11-4.10313384E-05 2.39250838E-07 2.54322215E-11
 3 76-1.88774953E-05 1.10077875E-07 4.23099149E-10-4.87498181E-07 4.87471768E-07
 3 77 2.56334076E-11-3.29004771E-09-1.02999891E-06 5.99887643E-09 1.92028730E-07
 3 78-1.92062160E-07 3.05441434E-11 1.30540928E-09-3.53953801E-05 2.06407217E-07
 3 79 6.62023693E-06-3.86055995E-08 2.63334004E-11-1.72660848E-08-1.57182141E-06
 3 80 2.96063500E-06 1.57179127E-06-1.18426149E-05 6.90609317E-08-1.05826485E-08
 3 81-8.87839263E-11-0.00000000E+00-6.01990562E-11 3.39927556E-09 9.40746307E-06
 3 82-5.48590492E-08-7.00099357E-11-4.10313654E-05 2.39251724E-07-1.27979927E-10
 3 83-1.88774164E-05 1.10077051E-07-1.11829442E-09-4.87502217E-07 4.87489064E-07
 3 84 1.23844304E-11-3.28818097E-09 1.03000576E-06-6.00219156E-09 1.91996315E-07
 3 85-1.92104750E-07 1.05527849E-10 1.29112969E-09 3.53953652E-05-2.06406633E-07
 3 86 6.62022139E-06-3.86091569E-08-2.19459245E-11-1.72614018E-08 1.57181510E-06
 3 87 2.96064557E-06-1.57179078E-06-1.18426046E-05 6.90610214E-08 1.05803917E-08
 4  1 2.35800954E-11-3.54156527E-11 1.10243593E-10-6.22292804E-11-1.95368121E-10
 4  2 2.60669685E-10-1.62678264E-10-5.25899384E-11 5.81663367E-03 9.97474230E-01
 4  3-4.26987701E-09 2.15732974E-06 3.69953624E-04 7.96542427E-11 5.39193409E-05
 4  4 9.24644264E-03 9.84310629E-11-1.62838692E-05-2.79246517E-03-0.00000000E+00
 4  5 9.45334340E-06 1.62112429E-03 1.28460742E-10 6.13335352E-06 1.05185511E-03
 4  6-6.24236230E-10-1.49171173E-07 1.49100454E-07 7.06427379E-11 2.94971088E-05
 4  7-0.00000000E+00-1.93753982E-11 8.89452559E-07-8.89405346E-07-4.73089441E-11
 4  8-1.76129616E-04-0.00000000E+00-0.00000000E+00-2.26993480E-06 2.26991378E-06
 4  9 2.10537498E-11 4.49491638E-04-0.00000000E+00-3.03692517E-11 4.94458592E-06
 4 10-4.94449851E-06-8.74178929E-11-9.79131027E-04-0.00000000E+00-0.00000000E+00
 4 11-1.65601812E-06-2.83983875E-04-0.00000000E+00-1.27001268E-04-0.00000000E+00
 4 12-7.40580948E-07-0.00000000E+00 2.96236241E-06 5.08005618E-04-1.28652769E-11
 4 13 5.36025645E-07 9.19239741E-05 2.76642680E-11 4.11095258E-05-1.83198606E-11
 4 14 2.39711548E-07-1.87957767E-11-9.58865416E-07-1.64438479E-04-0.00000000E+00
 4 15 6.25947082E-08 2.12634856E-08-0.00000000E+00 8.19219801E-06-0.00000000E+00
 4 16-1.35507699E-05-0.00000000E+00-0.00000000E+00-0.00000000E+00-7.36465037E-08
 4 17-3.63086208E-08 3.62946369E-08-0.00000000E+00-0.00000000E+00 7.18927858E-06
 4 18 1.21063041E-05 1.10540319E-04-5.43817167E-04-5.66779511E-04-2.44302816E-07
 4 19-8.76982005E-07-1.45782943E-11-5.07608307E-05 1.02579300E-04-0.00000000E+00
 4 20-3.81214904E-04 7.16989472E-04 2.52417477E-11-1.25242549E-06 2.23738097E-06
 4 21-9.84955479E-07-1.06003793E-06-0.00000000E+00-2.93534304E-11 4.14224739E-05
 4 22-1.25888507E-04 8.44660336E-05 1.34338152E-04-0.00000000E+00 3.32967140E-11
 4 23-3.39968058E-05-2.20219312E-05-0.00000000E+00-7.63310569E-06-0.00000000E+00
 4 24 6.67772371E-05-0.00000000E+00-2.11657359E-05 3.71786268E-05-0.00000000E+00
 4 25-1.21881155E-05-1.11287196E-04 5.47491733E-04 5.70608614E-04 2.30960072E-07
 4 26-8.74194363E-07 1.45759039E-11 5.12735985E-05 1.03174127E-04-0.00000000E+00
 4 27 3.84447314E-04 7.21454057E-04-4.80959729E-11 1.23652062E-06-2.22812505E-06
 4 28 9.91604425E-07-1.08343956E-06-0.00000000E+00-3.11884671E-11-4.13715509E-05
 4 29 1.26408271E-04-8.50367204E-05 1.35466357E-04-1.93852099E-11-0.00000000E+00
 4 30 3.42231291E-05-2.21356680E-05-0.00000000E+00-7.72827737E-06-0.00000000E+00
 4 31-6.72299179E-05-0.00000000E+00 2.13147721E-05 3.74263924E-05-0.00000000E+00
 4 32 8.18057807E-08 7.46836846E-07-3.67473876E-06-3.82891756E-06-4.29743622E-09
 4 33-1.28727833E-06-0.00000000E+00 7.71503416E-07 1.45122819E-05-0.00000000E+00
 4 34 5.48206275E-06 5.61388094E-05-2.09682553E-11 1.45605018E-08-7.92993459E-09
 4 35-6.63056718E-09 2.40542524E-06-0.00000000E+00-0.00000000E+00-1.24872232E-06
 4 36 6.78019261E-07 5.70703060E-07-3.26433393E-05 2.84982787E-11 1.30284567E-11
 4 37-4.71231506E-07 2.16516739E-06-0.00000000E+00-3.41818134E-06-0.00000000E+00
 4 38 3.43168319E-07-0.00000000E+00 2.89055089E-07 5.13304458E-07 1.63617083E-11
 4 39-2.02353122E-06 4.78970029E-07 2.58494774E-04-5.15646500E-04 1.65368017E-06
 4 40 1.98648327E-06-1.07967976E-11 3.40194367E-05-3.78058994E-05-0.00000000E+00
 4 41-5.09769626E-05 8.50960113E-05-0.00000000E+00-5.47641430E-07 6.84902642E-06
 4 42-6.30138499E-06-8.22869568E-06-0.00000000E+00-0.00000000E+00-5.15673170E-07
 4 43-1.40003663E-05 1.45160394E-05 1.53153779E-05-1.42232213E-11-2.15195451E-11
 4 44-1.27061399E-06 7.49811069E-07-0.00000000E+00 1.17164625E-06-0.00000000E+00
 4 45 3.27881532E-07-0.00000000E+00 1.37682602E-06-2.17762337E-06 1.70332633E-11
 4 46 2.03719506E-06-4.82219998E-07-2.60241271E-04 5.19129920E-04-1.60869374E-06
 4 47 1.96747020E-06-0.00000000E+00-3.40047167E-05-3.82025784E-05-1.18248935E-11
 4 48 5.12841628E-05 8.56922389E-05-0.00000000E+00 5.59707866E-07-6.90365645E-06
 4 49 6.34394858E-06-8.27871780E-06-0.00000000E+00-0.00000000E+00 5.00768285E-07
 4 50 1.41133183E-05-1.46140866E-05 1.54065904E-05-0.00000000E+00-2.07060637E-11
 4 51 1.27785952E-06 7.68158104E-07-0.00000000E+00 1.16311433E-06-0.00000000E+00
 4 52-3.30686411E-07-0.00000000E+00-1.38374205E-06-2.19370658E-06 1.62692999E-11
 4 53-1.36748568E-08 3.21447829E-09 1.74655736E-06-3.48292561E-06 6.05131673E-09
 4 54 4.80203947E-06-0.00000000E+00-3.36206651E-07 2.09062930E-05-0.00000000E+00
 4 55 6.69815616E-07-3.16683564E-06-0.00000000E+00 7.54852182E-08-3.29028474E-08
 4 56-4.25823708E-08-8.23685958E-07-0.00000000E+00-0.00000000E+00-1.49369882E-07
 4 57 5.13229291E-08 9.80469459E-08 1.81236043E-06-0.00000000E+00-0.00000000E+00
 4 58 6.33339969E-09 8.11031716E-07-0.00000000E+00-1.29316689E-06-0.00000000E+00
 4 59 8.89177524E-09-0.00000000E+00-1.73889226E-08 2.05053657E-07-0.00000000E+00
 4 60-0.00000000E+00 9.80557725E-11 1.38174655E-10-3.57313927E-10-9.77414138E-09
 4 61-1.67918094E-06-0.00000000E+00 1.70150960E-07 2.91816542E-05 1.81234696E-10
 4 62-8.54257479E-09-1.46165983E-06-7.58220248E-10-1.65769084E-08 1.65798742E-08
 4 63-0.00000000E+00 3.28258454E-06 2.08631730E-08 3.57877754E-06-5.94479914E-08
 4 64 5.95304639E-08-8.24593826E-11 1.17782843E-05-1.75241654E-07-3.00582622E-05
 4 65-2.27941314E-07-3.90908864E-05 4.51621040E-11-1.74819863E-05-7.32795002E-08
 4 66-1.01939510E-07 7.32189913E-08 4.07754874E-07 6.99279139E-05 1.45056870E-05
 4 67 1.18483920E-11-2.41314050E-11 3.11217780E-10 3.23269720E-10-9.77178035E-09
 4 68-1.67916650E-06 1.15608555E-11 1.70148673E-07 2.91816521E-05 2.02607820E-10
 4 69-8.51737573E-09-1.46173295E-06-1.03308030E-10-1.65887324E-08 1.65602160E-08
 4 70 2.85616501E-11 3.28256233E-06-2.08686737E-08-3.57877463E-06-5.94801453E-08