 !#############################################################################
 !                   D_3h RHF GEOMETRY OPTIMIZATION AND HESSIAN TEMPLATE
 ! ---------------------------------------------------------------------------
 ! Replace the symmetry-correct coordinates, should only be two atoms.  
 ! The hydrogen or fluorine should have only one non-zero x,y,z coordinate.
 ! 
 ! Basis set?   gbasis=ccd for 2nd row, 
 !                         cct 3rd/4th,
 !                   SPKrTZP for heavy,
 !                   SPKrTZC beyond 4th
 ! 
 !#############################################################################
 $system kdiag=3 mwords=800 memddi=15000 parall=.t. $end
 $contrl runtyp=energy ispher=1 $end
 $contrl icut=9 itol=20 inttyp=rysquad qmttol=1.0d-05 nosym=1 $end
 $contrl scftyp=mcscf  mult=3 maxit=200 icharg=0 mplevl=2 $end
 $scf    npunch=2 conv=1.0d-06 dirscf=.t. $end
 $force  method=seminum $end
 $trans  dirtrf=.t. $end
 $statpt hssend=.t. $end
 $basis  gbasis=SPKrTZP $end
 !#############################################################################
 !
 !                       TURN ON THIS SECTION IF HEAVY ATOM
 !
 !#############################################################################
 !
 $contrl relwfn=LUT-IOTC $end
 $scf  diis=.t. soscf=.f. ethrsh=10.0 $end
 -guess iorder(43)=44 iorder(44)=43 $end
 $gmcpt nsolut=100 $end
 !
 !#############################################################################
 !
 ! TURN ON THIS SECTION IF GMCPT, CHANGE runtyp=energy, scftyp=mcscf, change nosym=1
 !
 !#############################################################################
 $guess  guess=moread norb=369 purify=.t. norder=1 $end
 $mcscf  cistep=gmcci fullnr=.t. finci=mos
         acurcy=1.d-6 maxit=100 $end
 $mrmp   mrpt=gmcpt rdvecs=.f. $end
 $gmcpt  nmofzc=19 nmodoc=24 nmoact=8 nelact=10 stsym(1)=A
         reftyp=ormas nspace=1 mstart(1)=44 mine(1)=10 maxe(1)=10
         kstate(1)=1,1,1,1,1,1,1,1,1,1,1,1,1,1,1,1,1
         wstate(1)=3,1,1,1,1,1,1,1,1,1,1,1,1,3,3,3,3
         iwgt=0 thrwgt=-1.0 krot=.f. kszdoe=.f. knospn=.t.
         thrde=-1.0 edshft=0.02 maxbas=8000 $end
 $transt $end
 !#############################################################################
 !
 !             TURN OFF THIS SECTION IF temp.inp, add C1
 !
 !    IF SOC, $transt $end, turn knospn=.t., restart from gmcpt states calc
 !
 !#############################################################################
 $data
 Iron pentacarbonyl optimization
 C1
 FE         26.0  -0.0000000000   0.0000000000   0.0000000000
 C           6.0  -0.8824444078   1.5284385491   0.0000000000
 C           6.0  -0.8824444078  -1.5284385491   0.0000000000
 C           6.0   1.7648888155   0.0000000000   0.0000000000
 O           8.0  -1.4586915946   2.5265279545   0.0000000000
 O           8.0  -1.4586915946  -2.5265279545   0.0000000000
 O           8.0   2.9173831893   0.0000000000   0.0000000000
 C           6.0   0.0000000000   0.0000000000  -1.6781093310
 C           6.0  -0.0000000000   0.0000000000   1.6781093310
 O           8.0  -0.0000000000   0.0000000000  -2.8433375200
 O           8.0  -0.0000000000   0.0000000000   2.8433375200
 $end
Semi-canonical MOs --- generated at Sun Mar 31 07:32:00 2024
 $VEC   
 1  1 9.97431913E-01 1.19170319E-02 3.41145102E-03-7.21580456E-03 2.28710483E-03
 1  2-3.53204280E-03 7.06829004E-04-7.92787113E-05-1.20671200E-11-0.00000000E+00
 1  3-0.00000000E+00-1.74037116E-11-0.00000000E+00-1.82553910E-11 5.50799300E-11
 1  4 3.86942132E-11 4.73089219E-11-1.73437610E-10-1.52767402E-10-7.62702181E-11
 1  5 3.59022485E-10 3.16466409E-10 5.68984030E-11-3.90067787E-10-1.13468323E-09
 1  6 9.10154177E-10 4.16208692E-06 4.16206796E-06-8.32415488E-06-2.07282309E-11
 1  7-0.00000000E+00-0.00000000E+00-1.95220631E-05-1.95219330E-05 3.90439961E-05
 1  8 4.73047015E-11-0.00000000E+00-0.00000000E+00 1.37598531E-04 1.37598028E-04
 1  9-2.75196559E-04-2.25810083E-10 1.23819137E-11-0.00000000E+00-5.09553826E-05
 1 10-5.09545602E-05 1.01909943E-04 2.80713657E-10-1.80566888E-11-0.00000000E+00
 1 11 1.60529125E-05-0.00000000E+00-0.00000000E+00-0.00000000E+00-0.00000000E+00
 1 12-2.15372239E-05-0.00000000E+00-1.66468742E-11-0.00000000E+00-0.00000000E+00
 1 13-1.12927870E-04-0.00000000E+00-2.95685639E-11-0.00000000E+00 2.02207790E-11
 1 14 1.51508686E-04 1.94496123E-11-5.03664540E-11-0.00000000E+00-0.00000000E+00
 1 15-1.77298711E-05-1.77298724E-05-4.72797002E-05-0.00000000E+00-0.00000000E+00
 1 16-0.00000000E+00-0.00000000E+00-0.00000000E+00-0.00000000E+00-1.03815869E-05
 1 17 4.15262354E-05 4.15262377E-05-0.00000000E+00-0.00000000E+00-0.00000000E+00
 1 18-2.97646740E-05-1.94477777E-04 5.33300666E-04 3.69436081E-05-1.46659482E-05
 1 19 2.54021903E-05-0.00000000E+00 1.11995447E-04-1.93981850E-04-0.00000000E+00
 1 20-1.06132710E-04 1.83827316E-04-3.58932625E-11 1.56142182E-06-5.22591538E-06
 1 21 3.66449356E-06 6.78732046E-06-0.00000000E+00-0.00000000E+00-2.59617803E-05
 1 22 1.42214630E-04-1.16252850E-04-1.68176017E-04-0.00000000E+00-0.00000000E+00
 1 23-3.73127704E-05-2.80908933E-05-0.00000000E+00-1.25626194E-05-0.00000000E+00
 1 24 7.90724924E-05-0.00000000E+00-2.90121577E-05 5.02505076E-05-0.00000000E+00
 1 25-2.97647001E-05-1.94477939E-04 5.33301537E-04 3.69424387E-05-1.46659580E-05
 1 26-2.54021991E-05-0.00000000E+00 1.11995442E-04 1.93981837E-04-0.00000000E+00
 1 27-1.06133675E-04-1.83828801E-04-3.54483818E-11 1.56141733E-06-5.22592126E-06
 1 28 3.66450393E-06-6.78732329E-06-0.00000000E+00-0.00000000E+00-2.59617932E-05
 1 29 1.42214757E-04-1.16252964E-04 1.68176202E-04-0.00000000E+00-0.00000000E+00
 1 30-3.73127851E-05 2.80909036E-05-0.00000000E+00 1.25626279E-05-0.00000000E+00
 1 31 7.90725299E-05-0.00000000E+00-2.90121756E-05-5.02505298E-05-0.00000000E+00
 1 32-2.97646515E-05-1.94477474E-04 5.33301004E-04 3.69431736E-05 2.93319372E-05
 1 33-0.00000000E+00-0.00000000E+00-2.23990689E-04-0.00000000E+00-0.00000000E+00
 1 34 2.12266143E-04 9.51256341E-11-3.70758639E-11-8.61947879E-06 4.95502108E-06
 1 35 3.66445770E-06-0.00000000E+00-0.00000000E+00-0.00000000E+00 2.26302434E-04
 1 36-1.10049616E-04-1.16252818E-04 2.15503233E-11-0.00000000E+00-0.00000000E+00
 1 37-8.59675737E-05-0.00000000E+00-0.00000000E+00-0.00000000E+00-0.00000000E+00
 1 38 5.73133489E-05-0.00000000E+00 5.80242543E-05-0.00000000E+00-0.00000000E+00
 1 39-4.41925504E-07 1.68159399E-05 4.97123868E-06-3.68702070E-04-1.23518879E-06
 1 40 2.13941146E-06-0.00000000E+00 2.95242797E-05-5.11375905E-05-0.00000000E+00
 1 41-5.33854237E-05 9.24660197E-05 2.03890138E-11-1.15339230E-06 5.83116382E-06
 1 42-4.67777152E-06-6.98462085E-06-0.00000000E+00-0.00000000E+00-4.20788301E-06
 1 43 1.99814063E-05-1.57735233E-05-2.41892002E-05-0.00000000E+00-0.00000000E+00
 1 44-6.67449443E-06-4.76047294E-06-0.00000000E+00-2.12894345E-06-0.00000000E+00
 1 45 1.38713358E-05-0.00000000E+00-4.91656188E-06 8.51578811E-06-0.00000000E+00
 1 46-4.41921187E-07 1.68159635E-05 4.97118544E-06-3.68703553E-04-1.23518551E-06
 1 47-2.13940897E-06-0.00000000E+00 2.95242754E-05 5.11375960E-05-0.00000000E+00
 1 48-5.33855996E-05-9.24664069E-05 1.99862225E-11-1.15339760E-06 5.83117134E-06
 1 49-4.67777375E-06 6.98462613E-06-0.00000000E+00-0.00000000E+00-4.20787130E-06
 1 50 1.99813909E-05-1.57735196E-05 2.41891952E-05-0.00000000E+00-0.00000000E+00
 1 51-6.67448877E-06 4.76047947E-06-0.00000000E+00 2.12894613E-06-0.00000000E+00
 1 52 1.38713366E-05-0.00000000E+00-4.91657027E-06-8.51579955E-06-0.00000000E+00
 1 53-4.41921329E-07 1.68158920E-05 4.97120142E-06-3.68702674E-04 2.47034336E-06
 1 54-0.00000000E+00-0.00000000E+00-5.90483823E-05-0.00000000E+00-0.00000000E+00
 1 55 1.06770849E-04-4.13832176E-11 2.14625223E-11 9.32349155E-06-4.64572562E-06
 1 56-4.67776593E-06-0.00000000E+00-0.00000000E+00-0.00000000E+00 3.20758366E-05
 1 57-1.63023900E-05-1.57734466E-05-0.00000000E+00-0.00000000E+00-0.00000000E+00
 1 58-1.49198036E-05-0.00000000E+00-0.00000000E+00-0.00000000E+00-0.00000000E+00
 1 59 1.01838711E-05-0.00000000E+00 9.83314592E-06-0.00000000E+00-0.00000000E+00
 1 60-4.47309836E-05-2.53897364E-04 7.73882273E-04-1.04565432E-06-1.96761431E-11
 1 61-0.00000000E+00-2.95303269E-05-0.00000000E+00-0.00000000E+00 3.10897111E-04
 1 62 3.81611449E-11-0.00000000E+00-2.03779641E-04-2.48681251E-06-2.48677879E-06
 1 63 4.97359130E-06-0.00000000E+00-4.73686614E-11-0.00000000E+00-1.76119227E-04
 1 64-1.76119268E-04 3.52238496E-04 1.66148513E-11 7.22667211E-11-0.00000000E+00
 1 65-1.58498369E-07-0.00000000E+00 9.10875908E-05-0.00000000E+00-6.11033922E-05
 1 66 2.12601778E-07-6.11034347E-05 4.74863051E-11-0.00000000E+00-0.00000000E+00
 1 67-4.47309730E-05-2.53897309E-04 7.73882442E-04-1.04634667E-06-1.99924453E-11
 1 68-0.00000000E+00 2.95303495E-05-1.12759988E-11-0.00000000E+00-3.10897315E-04
 1 69 5.23856615E-11-0.00000000E+00 2.03781241E-04-2.48680033E-06-2.48676359E-06
 1 70 4.97356392E-06-0.00000000E+00 4.38295638E-11-0.00000000E+00-1.76119168E-04
 1 71-1.76119210E-04 3.52238378E-04 1.65303923E-11-7.82853297E-11-0.00000000E+00
 1 72-1.58495898E-07-0.00000000E+00-9.10876709E-05-0.00000000E+00 6.11034460E-05
 1 73 2.12603244E-07 6.11034884E-05 4.26797869E-11-0.00000000E+00-0.00000000E+00
 1 74 7.09003499E-07 2.34960603E-05-8.75980393E-05-3.79968354E-04-0.00000000E+00
 1 75-0.00000000E+00-3.11452317E-06-2.18472234E-11-0.00000000E+00 4.81577453E-05
 1 76 4.17093368E-11-0.00000000E+00-1.24065931E-04-3.44871361E-06-3.44870437E-06
 1 77 6.89741798E-06-0.00000000E+00-0.00000000E+00-0.00000000E+00-2.07201805E-05
 1 78-2.07201534E-05 4.14403338E-05-0.00000000E+00 2.81932792E-11-0.00000000E+00
 1 79-1.35679553E-07-0.00000000E+00 1.62352431E-05-0.00000000E+00-1.08909372E-05
 1 80 1.82033933E-07-1.08909271E-05-0.00000000E+00-0.00000000E+00-0.00000000E+00
 1 81 7.08987740E-07 2.34959562E-05-8.75973643E-05-3.79969996E-04-0.00000000E+00
 1 82-0.00000000E+00 3.11454734E-06-1.68813766E-11-0.00000000E+00-4.81579411E-05
 1 83 4.31681135E-11-0.00000000E+00 1.24066356E-04-3.44872906E-06-3.44871911E-06
 1 84 6.89744816E-06-0.00000000E+00-0.00000000E+00-0.00000000E+00-2.07201689E-05
 1 85-2.07201391E-05 4.14403081E-05-0.00000000E+00-2.77085664E-11-0.00000000E+00
 1 86-1.35679732E-07-0.00000000E+00-1.62352445E-05-0.00000000E+00 1.08909352E-05
 1 87 1.82033906E-07 1.08909310E-05-0.00000000E+00-0.00000000E+00-0.00000000E+00
 2  1-3.20543468E-01 1.04840348E+00 2.74823477E-02-1.42722379E-02 4.39885561E-03
 2  2-1.08415580E-02 2.49865514E-03-2.49921695E-04-3.06085607E-10 6.43046643E-11
 2  3-0.00000000E+00-0.00000000E+00 2.16728718E-11-4.74006407E-11-1.94093832E-10
 2  4-9.75267933E-11 1.32126387E-10 4.56975102E-10 2.80189176E-10-2.98898809E-10
 2  5-5.11719098E-10-5.84178519E-10 6.05380029E-10-3.32556885E-09 6.40255974E-10
 2  6-2.70056586E-09-2.40294899E-04-2.40294830E-04 4.80589729E-04 1.73860849E-11
 2  7 1.51767478E-11-0.00000000E+00-2.61236479E-04-2.61236356E-04 5.22472835E-04
 2  8-4.30573812E-11-3.12336358E-11-0.00000000E+00 7.10419039E-04 7.10418407E-04
 2  9-1.42083745E-03 2.89605313E-10 1.09034598E-10-0.00000000E+00-6.21521440E-04
 2 10-6.21519340E-04 1.24304078E-03-1.77730778E-10-1.74233945E-10-0.00000000E+00
 2 11 6.90604490E-05-0.00000000E+00-0.00000000E+00-0.00000000E+00-0.00000000E+00
 2 12-9.26543044E-05-0.00000000E+00-1.17148821E-11-0.00000000E+00-0.00000000E+00
 2 13-4.15116928E-04-0.00000000E+00-0.00000000E+00-0.00000000E+00-0.00000000E+00
 2 14 5.56937698E-04-0.00000000E+00 1.08385455E-10 1.25511838E-11-0.00000000E+00
 2 15-6.76583983E-05-6.76583426E-05-1.80422229E-04-0.00000000E+00-0.00000000E+00
 2 16-0.00000000E+00-0.00000000E+00-0.00000000E+00-0.00000000E+00-3.96166043E-05
 2 17 1.58466709E-04 1.58466611E-04-0.00000000E+00-0.00000000E+00-0.00000000E+00
 2 18 7.59787966E-05-8.95073986E-04 1.02686359E-03 2.52927294E-05-1.79626726E-04
 2 19 3.11122746E-04-0.00000000E+00 2.77505819E-04-4.80654057E-04 1.35716987E-11
 2 20-3.01445650E-04 5.22119398E-04-3.83983121E-11 1.71562075E-06-1.93608396E-05
 2 21 1.76452188E-05 2.10764474E-05-0.00000000E+00-0.00000000E+00-7.41642700E-05
 2 22 4.15509637E-04-3.41345367E-04-4.89673612E-04-0.00000000E+00 3.39050352E-11
 2 23-1.35973885E-04-1.00888457E-04-0.00000000E+00-4.51186881E-05-0.00000000E+00
 2 24 2.86625232E-04-0.00000000E+00-1.04197122E-04 1.80474757E-04-0.00000000E+00
 2 25 7.59788405E-05-8.95073743E-04 1.02686254E-03 2.52928156E-05-1.79626697E-04
 2 26-3.11122691E-04-0.00000000E+00 2.77505801E-04 4.80654001E-04 2.10287972E-11
 2 27-3.01445163E-04-5.22118703E-04-3.80661571E-11 1.71559463E-06-1.93608128E-05
 2 28 1.76452182E-05-2.10764471E-05-0.00000000E+00-0.00000000E+00-7.41642018E-05
 2 29 4.15509367E-04-3.41345165E-04 4.89673244E-04-0.00000000E+00-3.56336663E-11
 2 30-1.35973852E-04 1.00888432E-04-0.00000000E+00 4.51186932E-05-0.00000000E+00
 2 31 2.86625177E-04-0.00000000E+00-1.04197111E-04-1.80474729E-04-0.00000000E+00
 2 32 7.59788465E-05-8.95073764E-04 1.02685945E-03 2.52960770E-05 3.59253636E-04
 2 33-0.00000000E+00-1.71680863E-11-5.55013964E-04-1.89505960E-11 4.06305713E-11
 2 34 6.02885478E-04-6.62605244E-11-2.07770886E-11-2.98993286E-05 1.22539869E-05
 2 35 1.76453417E-05-1.71606402E-11-0.00000000E+00-0.00000000E+00 6.60345373E-04
 2 36-3.19000554E-04-3.41344819E-04-0.00000000E+00-0.00000000E+00-0.00000000E+00
 2 37-3.10718104E-04-0.00000000E+00-0.00000000E+00-0.00000000E+00-0.00000000E+00
 2 38 2.08477617E-04-0.00000000E+00 2.08394465E-04-0.00000000E+00-0.00000000E+00
 2 39-2.78479680E-05 9.26441346E-05 1.99508001E-04-9.55348481E-04 4.27429928E-05
 2 40-7.40328431E-05-0.00000000E+00 1.81682643E-04-3.14683299E-04-0.00000000E+00
 2 41-8.57959146E-05 1.48602788E-04-0.00000000E+00-4.66937231E-06 2.51271119E-05
 2 42-2.04577396E-05-2.97965395E-05-0.00000000E+00-0.00000000E+00-1.79702663E-05
 2 43 7.92691669E-05-6.12989007E-05-9.72394403E-05-0.00000000E+00-0.00000000E+00
 2 44-2.37354710E-05-1.62885956E-05-0.00000000E+00-7.28445805E-06-0.00000000E+00
 2 45 4.86672581E-05-0.00000000E+00-1.68227821E-05 2.91379023E-05-0.00000000E+00
 2 46-2.78479714E-05 9.26441895E-05 1.99508006E-04-9.55347119E-04 4.27429885E-05
 2 47 7.40328261E-05-0.00000000E+00 1.81682641E-04 3.14683322E-04-0.00000000E+00
 2 48-8.57957349E-05-1.48602393E-04-1.28539651E-11-4.66936111E-06 2.51271034E-05
 2 49-2.04577423E-05 2.97965344E-05-0.00000000E+00-0.00000000E+00-1.79702991E-05
 2 50 7.92692010E-05-6.12989018E-05 9.72394418E-05-0.00000000E+00-0.00000000E+00
 2 51-2.37354781E-05 1.62886053E-05-0.00000000E+00 7.28444472E-06-0.00000000E+00
 2 52 4.86672690E-05-0.00000000E+00-1.68227835E-05-2.91379020E-05-0.00000000E+00
 2 53-2.78480367E-05 9.26440245E-05 1.99509891E-04-9.55342553E-04-8.54855767E-05
 2 54-0.00000000E+00-0.00000000E+00-3.63366028E-04-0.00000000E+00-0.00000000E+00
 2 55 1.71589735E-04 3.30577563E-11-0.00000000E+00 4.00253978E-05-1.95676577E-05
 2 56-2.04577401E-05-0.00000000E+00-0.00000000E+00-0.00000000E+00 1.27889310E-04
 2 57-6.65901990E-05-6.12991110E-05-2.95471464E-11-0.00000000E+00-0.00000000E+00
 2 58-5.19481296E-05-0.00000000E+00-0.00000000E+00-0.00000000E+00-0.00000000E+00
 2 59 3.60501672E-05-0.00000000E+00 3.36455622E-05-0.00000000E+00-0.00000000E+00
 2 60-3.97998596E-04-4.57399882E-04 3.00530010E-03 8.70095829E-05-1.59385255E-11
 2 61-0.00000000E+00 2.23266957E-04-0.00000000E+00 5.05918648E-11 1.66098006E-03
 2 62-1.26747422E-10-8.25646644E-11-7.47633144E-04-1.27291103E-05-1.27291605E-05
 2 63 2.54582708E-05-0.00000000E+00-0.00000000E+00-0.00000000E+00-6.06636449E-04
 2 64-6.06636318E-04 1.21327277E-03 1.77518373E-11-0.00000000E+00-3.23185188E-11
 2 65 1.71643765E-06-1.96912300E-11 4.24689046E-04-0.00000000E+00-2.84890059E-04
 2 66-2.30284031E-06-2.84890087E-04-0.00000000E+00 2.71942696E-11-0.00000000E+00
 2 67-3.97998558E-04-4.57399754E-04 3.00529832E-03 8.70125445E-05-2.42033485E-11
 2 68-0.00000000E+00-2.23266946E-04 1.22383980E-11 4.78672519E-11-1.66098040E-03
 2 69-2.53517009E-11-8.74463457E-11 7.47629366E-04-1.27291020E-05-1.27291453E-05
 2 70 2.54582473E-05-0.00000000E+00 2.23190629E-11-0.00000000E+00-6.06636153E-04
 2 71-6.06636005E-04 1.21327216E-03 1.80625956E-11-4.52147667E-11 3.10583135E-11
 2 72 1.71645336E-06-1.92370304E-11-4.24689089E-04-0.00000000E+00 2.84890084E-04
 2 73-2.30283901E-06 2.84890119E-04-2.22303584E-11 2.60456737E-11-0.00000000E+00
 2 74 3.35820225E-05 3.30488054E-05-1.80894034E-04-1.44328243E-03-0.00000000E+00
 2 75-0.00000000E+00-1.58768090E-04-6.85423736E-11-3.21060351E-11 7.79062780E-05
 2 76 4.75843866E-11-0.00000000E+00-5.48241512E-04-1.27502076E-05-1.27501936E-05
 2 77 2.55004013E-05-0.00000000E+00 1.52385125E-11-0.00000000E+00-7.13508818E-05
 2 78-7.13508855E-05 1.42701767E-04-0.00000000E+00 2.43339852E-11-3.38443653E-11
 2 79-7.56498191E-07-0.00000000E+00 5.13811831E-05-0.00000000E+00-3.44675291E-05
 2 80 1.01495210E-06-3.44675619E-05-0.00000000E+00-0.00000000E+00-0.00000000E+00
 2 81 3.35820143E-05 3.30487511E-05-1.80893517E-04-1.44327942E-03-0.00000000E+00
 2 82-0.00000000E+00 1.58768120E-04-3.92499306E-11-2.99214127E-11-7.79064394E-05
 2 83 2.09016205E-11-0.00000000E+00 5.48240516E-04-1.27501934E-05-1.27501921E-05
 2 84 2.55003855E-05-0.00000000E+00-0.00000000E+00-0.00000000E+00-7.13509405E-05
 2 85-7.13509403E-05 1.42701881E-04-0.00000000E+00-3.99909040E-11 3.22209858E-11
 2 86-7.56502705E-07-0.00000000E+00-5.13811966E-05-0.00000000E+00 3.44675269E-05
 2 87 1.01495676E-06 3.44675821E-05-0.00000000E+00-0.00000000E+00-0.00000000E+00
 3  1 0.00000000E+00-5.28806755E-11 0.00000000E+00 2.65445484E-11-1.71280906E-10
 3  2 5.32048473E-10-2.52396321E-09-2.02077779E-10 6.44680825E-02 9.95333642E-01
 3  3-8.83802017E-09 3.70796526E-05 5.72479179E-04 0.00000000E+00 5.84945307E-04
 3  4 9.03106980E-03-6.73786833E-11-1.60667488E-04-2.48057319E-03-8.15755033E-11
 3  5 6.99164520E-05 1.07945205E-03 1.71434012E-10 4.92786371E-05 7.60819421E-04
 3  6 6.26281892E-11-3.72112868E-06 3.72118832E-06-6.03412690E-11 6.63391432E-05
 3  7 0.00000000E+00-2.07458070E-11 1.02693167E-05-1.02692475E-05-6.99262993E-11
 3  8-1.83076026E-04 0.00000000E+00 0.00000000E+00-2.79145800E-05 2.79141920E-05
 3  9 3.88236967E-10 4.97646616E-04 0.00000000E+00 1.43485275E-11 3.65970734E-05
 3 10-3.65964309E-05-6.42396416E-10-6.52432036E-04 0.00000000E+00-6.05342694E-11
 3 11 1.76802340E-06 2.72964942E-05 0.00000000E+00 1.22073533E-05 0.00000000E+00
 3 12 7.90678779E-07 0.00000000E+00-3.16273109E-06-4.88294432E-05 0.00000000E+00
 3 13-3.96418815E-06-6.12039728E-05 2.94275925E-11-2.73712403E-05-2.03783000E-11
 3 14-1.77282441E-06-1.91043829E-11 7.09134092E-06 1.09484986E-04 0.00000000E+00
 3 15-8.52661726E-07-2.71569054E-07 0.00000000E+00-9.72990022E-06 0.00000000E+00
 3 16 1.65117912E-05 0.00000000E+00 0.00000000E+00 0.00000000E+00 9.87416846E-07
 3 17 5.10385908E-07-5.10373179E-07 0.00000000E+00 0.00000000E+00-9.09886151E-06
 3 18-6.84311329E-06-2.80288160E-05-1.09055912E-04-3.73959841E-04-1.23780668E-05
 3 19 2.47907281E-05 0.00000000E+00 7.39406172E-05-1.11998449E-04-2.96703559E-11
 3 20-2.84107175E-04 5.36134666E-04 6.06699731E-11-8.31977069E-07 5.04407304E-06
 3 21-4.21209597E-06-4.03655557E-06-1.55096137E-11-2.27402246E-11 9.25395347E-06
 3 22-2.27503951E-05 1.34964416E-05 2.08322771E-05 2.23354277E-11-1.06869454E-11
 3 23-4.57324946E-05-3.55199642E-05 1.34118611E-11-1.94306910E-05 0.00000000E+00
 3 24 1.00988375E-04-1.74381773E-11-3.96317948E-05 6.70857237E-05 1.51172737E-11
 3 25 7.37474407E-06 3.02063026E-05 1.17529753E-04 4.03015472E-04 1.37453011E-05
 3 26 2.64827928E-05 0.00000000E+00-7.77410272E-05-1.21822905E-04-1.38639383E-11
 3 27 3.11511105E-04 5.74713744E-04 2.25558816E-11 7.03874389E-07-5.24325050E-06
 3 28 4.53937611E-06-4.47868161E-06 1.03151763E-11-2.65520597E-11-8.80226171E-06
 3 29 2.33474525E-05-1.45451908E-05 2.32315347E-05-1.39409444E-11 0.00000000E+00
 3 30 4.93911384E-05-3.88944476E-05 0.00000000E+00-2.02245019E-05 0.00000000E+00
 3 31-1.08787599E-04 0.00000000E+00 4.25224332E-05 7.24068792E-05 0.00000000E+00
 3 32-5.31694367E-07-2.17778330E-06-8.47316299E-06-2.90551204E-05 2.14893387E-06
 3 33 3.01310989E-06 0.00000000E+00-1.04085748E-05 1.44495023E-05-2.47545732E-11
 3 34 4.71113529E-05 3.96035284E-05 4.21127845E-11 5.12967772E-07-1.85714214E-07
 3 35-3.27253558E-07 1.65387583E-06 0.00000000E+00 0.00000000E+00-2.35989003E-06
 3 36 1.31128851E-06 1.04860152E-06-1.00451685E-05 0.00000000E+00 2.43240940E-11
 3 37-8.65862241E-06-2.78093972E-06 0.00000000E+00 5.13238339E-06 0.00000000E+00
 3 38 5.56318616E-06 0.00000000E+00 6.05357481E-06-1.40136124E-06 0.00000000E+00
 3 39-2.34876344E-06 9.42891443E-06 2.41018493E-04-4.85960145E-04-1.14210342E-06
 3 40 3.64417166E-06 0.00000000E+00 4.87930546E-05-8.01360186E-05 3.00843513E-11
 3 41-5.70596703E-05 8.45302125E-05 0.00000000E+00-1.65357175E-06 8.69132185E-06
 3 42-7.03775010E-06-1.13392401E-05 0.00000000E+00 0.00000000E+00-3.02962194E-06
 3 43 6.91945519E-06-3.88983325E-06-1.52307660E-06 0.00000000E+00-3.76107767E-11
 3 44-2.11199735E-06-3.19342306E-06 0.00000000E+00 1.13898056E-07 0.00000000E+00
 3 45 4.91755461E-06 0.00000000E+00-2.08401282E-06 4.17052857E-06 0.00000000E+00
 3 46 2.53126054E-06-1.01614429E-05-2.59745013E-04 5.23717681E-04 1.43237715E-06
 3 47 3.81093352E-06 0.00000000E+00-5.20546386E-05-8.66680475E-05 0.00000000E+00
 3 48 5.97626683E-05 9.20968526E-05-2.63082852E-11 1.88624166E-06-9.47079152E-06
 3 49 7.58454986E-06-1.21507956E-05 0.00000000E+00 0.00000000E+00 2.38206262E-06
 3 50-6.57411949E-06 4.19205687E-06-2.23001282E-06 0.00000000E+00-2.03773823E-11
 3 51 2.23814518E-06-3.17874897E-06 0.00000000E+00-1.90625543E-07 0.00000000E+00
 3 52-5.31657819E-06 0.00000000E+00 2.31379134E-06 4.45536481E-06 1.57257510E-11
 3 53-1.82491586E-07 7.32596645E-07 1.87261211E-05-3.77567280E-05 2.89593931E-07
 3 54 1.49773860E-06 0.00000000E+00-7.28761069E-06 3.93450828E-06 1.31430521E-11
 3 55 7.90431138E-06-1.28578010E-05-1.47167847E-11 1.13509358E-06-5.88295802E-07
 3 56-5.46797781E-07-8.94056252E-07 0.00000000E+00 0.00000000E+00 4.33147051E-07
 3 57-1.30912726E-07-3.02234332E-07 7.57611278E-06 0.00000000E+00-1.16415667E-11
 3 58-4.56748424E-07 1.26821993E-06 0.00000000E+00-2.20581832E-06 0.00000000E+00
 3 59 2.51220278E-07 0.00000000E+00 3.61572037E-07 5.04322733E-07 0.00000000E+00
 3 60 0.00000000E+00 0.00000000E+00 5.03436653E-10 5.86466383E-10 8.22640784E-07
 3 61 1.27010149E-05-3.02092484E-11-1.86489596E-06-2.87926252E-05 7.67391919E-11
 3 62-5.20241792E-07-8.03276043E-06 2.05571741E-10-1.17548924E-07 1.17547766E-07
 3 63 0.00000000E+00 2.09535756E-06 2.13199860E-07 3.29191742E-06-4.00526621E-07
 3 64 4.00523939E-07 0.00000000E+00 7.14044314E-06-4.69664360E-06-7.25120943E-05
 3 65 1.09422182E-07 1.68950232E-06-2.87984042E-11 7.55586407E-07-3.21441451E-07
 3 66 4.89382752E-08 3.21480319E-07-1.95743537E-07-3.02229164E-06 5.73076752E-06
 3 67 2.49746290E-11-2.15048790E-11 4.44055972E-10 3.43899639E-10 8.22643427E-07
 3 68 1.27010234E-05 1.87983057E-11-1.86489116E-06-2.87926185E-05 1.49172707E-11
 3 69-5.20248916E-07-8.03280439E-06-8.48237525E-11-1.17521266E-07 1.17523663E-07
 3 70 0.00000000E+00 2.09535891E-06-2.13238121E-07-3.29190805E-06-4.00509065E-07
 3 71 4.00522999E-07-1.37849510E-11 7.14047339E-06 4.69665026E-06 7.25121037E-05
 3 72 1.09411068E-07 1.68949776E-06 2.65600221E-11 7.55571008E-07 3.21438199E-07
 3 73 4.89302629E-08-3.21474058E-07-1.95720614E-07-3.02227011E-06-5.73076093E-06
 3 74-1.71114140E-11-4.62754736E-11 1.29247417E-10-2.77778833E-10 1.57606480E-07
 3 75 2.43338708E-06-1.78414230E-11-8.46954797E-07-1.30763501E-05 4.73365671E-11
 3 76-1.51347622E-06-2.33663060E-05-1.29192687E-10-3.41297684E-08 3.41106495E-08
 3 77 1.89285250E-11 6.08318975E-07 1.85801403E-07 2.86870125E-06 9.45001094E-08
 3 78-9.44517108E-08-4.84817947E-11-1.68410771E-06-9.16869201E-07-1.41555188E-05
 3 79-6.72866829E-08-1.03890496E-06 0.00000000E+00-4.64608760E-07-1.02729699E-08
 3 80-3.00933318E-08 1.02784243E-08 1.20367890E-07 1.85844603E-06 1.83123811E-07
 3 81 3.81794553E-11-2.44223998E-11 8.20060684E-11-2.43641495E-10 1.57612770E-07
 3 82 2.43337936E-06-1.03716850E-11-8.46957012E-07-1.30763483E-05 0.00000000E+00
 3 83-1.51347883E-06-2.33662780E-05 1.04798397E-10-3.41217594E-08 3.41232065E-08
 3 84 0.00000000E+00 6.08362912E-07-1.85801577E-07-2.86870357E-06 9.44569055E-08
 3 85-9.44582146E-08 0.00000000E+00-1.68415469E-06 9.16874646E-07 1.41555392E-05
 3 86-6.72869531E-08-1.03891637E-06 0.00000000E+00-4.64587905E-07 1.02778454E-08
 3 87-3.00923755E-08-1.02758153E-08 1.20367296E-07 1.85844049E-06-1.83132892E-07
 4  1-1.06930416E-10 3.00097109E-10-1.99355772E-10 1.65270319E-10-2.25562360E-10
 4  2 8.12499655E-10-4.29446964E-09-4.14246220E-10 9.95333642E-01-6.44680825E-02
 4  3-1.42190173E-08 5.72479135E-04-3.70796577E-05 0.00000000E+00 9.03106998E-03
 4  4-5.84945295E-04-1.37547545E-10-2.48057344E-03 1.60667466E-04 0.00000000E+00
 4  5 1.07945242E-03-6.99164252E-05 1.26097559E-10 7.60821906E-04-4.92783009E-05
 4  6-1.84652396E-09-5.74514552E-05 5.74513313E-05 1.13286721E-10-4.29682168E-06
 4  7 0.00000000E+00 0.00000000E+00 1.58548670E-04-1.58548474E-04-2.06330430E-10
 4  8 1.18579387E-05 0.00000000E+00 0.00000000E+00-4.30975474E-04 4.30974424E-04
 4  9 1.05224503E-09-3.22327181E-05-4.54931228E-11 0.00000000E+00 5.65023989E-04
 4 10-5.65022346E-04-1.64009300E-09 4.22582302E-05 4.31204595E-11 0.00000000E+00
 4 11 2.72965121E-05-1.76802119E-06 0.00000000E+00-7.90679763E-07 1.95571805E-11
 4 12 1.22073468E-05-1.80512976E-11-4.88294607E-05 3.16272910E-06 0.00000000E+00
 4 13-6.12041626E-05 3.96417725E-06 0.00000000E+00 1.77283263E-06 0.00000000E+00
 4 14-2.73710936E-05 0.00000000E+00 1.09485094E-04-7.09133452E-06 0.00000000E+00
 4 15-1.31644797E-05-4.19284673E-06-3.20559237E-11 6.30201123E-07 0.00000000E+00
 4 16-1.06946392E-06 0.00000000E+00-2.25745982E-11 0.00000000E+00 1.52450905E-05
 4 17 7.87989963E-06-7.87985153E-06 0.00000000E+00 3.13543371E-11 5.89332884E-07
 4 18 4.56484938E-06 1.86968221E-05 7.27477214E-05 2.49456232E-04 1.14003242E-05
 4 19-1.47222895E-05-2.09682541E-11-3.42495933E-05 8.34130849E-05 2.01631743E-11
 4 20 2.30832970E-04-3.33784651E-04-1.49584384E-11-9.39248865E-07-1.87052467E-06
 4 21 2.80977353E-06 3.68876848E-06 0.00000000E+00 0.00000000E+00 2.90226313E-06
 4 22 6.10088634E-06-9.00314947E-06-1.99467640E-05-2.02337417E-11 0.00000000E+00
 4 23 3.13237782E-05 2.84594910E-05 0.00000000E+00 7.41217731E-06 1.79053964E-11
 4 24-6.70003560E-05-1.83143863E-11 2.49750976E-05-4.55945913E-05 0.00000000E+00
 4 25 3.64395849E-06 1.49249618E-05 5.80714962E-05 1.99131359E-04 9.70830469E-06
 4 26 1.14012795E-05-2.09193228E-11-2.44251376E-05-6.82683984E-05 1.87849531E-11
 4 27 1.92254825E-04 2.61834963E-04-1.59127487E-11-1.03871995E-06-1.20420254E-06
 4 28 2.24292249E-06-3.13721584E-06 0.00000000E+00 0.00000000E+00 4.07179250E-06
 4 29 3.11509102E-06-7.18688352E-06 1.70927124E-05-1.70019373E-11 0.00000000E+00
 4 30 2.51625921E-05-2.36396622E-05 0.00000000E+00-4.84370290E-06 1.88332794E-11
 4 31-5.34131177E-05-1.92716571E-11 1.96539578E-05 3.65596378E-05 0.00000000E+00
 4 32-8.20851871E-06-3.36221274E-05-1.30822627E-04-4.48589082E-04 3.31779749E-05
 4 33-1.95158635E-07 0.00000000E+00-1.60700354E-04-9.35885229E-07-3.02174496E-11
 4 34 7.27366929E-04-2.56516972E-06 5.57070992E-11 7.91964512E-06-2.86722023E-06
 4 35-5.05242490E-06-1.07113000E-07 0.00000000E+00 0.00000000E+00-3.64364240E-05
 4 36 2.02459213E-05 1.61905027E-05 6.50642931E-07 0.00000000E+00 0.00000000E+00
 4 37-1.33682374E-04 1.80125910E-07 1.72763873E-11-3.32430889E-07 0.00000000E+00
 4 38 8.58911311E-05-2.58018197E-11 9.34625948E-05 9.07666211E-08 0.00000000E+00
 4 39 1.56680702E-06-6.28959549E-06-1.60775366E-04 3.24167789E-04 2.32423714E-06
 4 40-1.52870242E-06 0.00000000E+00-2.84438753E-05 5.58258724E-05 0.00000000E+00
 4 41 2.46492638E-05-6.41313078E-05 0.00000000E+00 1.91076662E-06-6.60539171E-06
 4 42 4.69462509E-06 7.02553818E-06 0.00000000E+00 1.37984321E-11-4.82360535E-06
 4 43 2.22880672E-06 2.59479863E-06 5.57903591E-06-1.65621603E-11 0.00000000E+00
 4 44 1.11474006E-06 9.31268611E-08 0.00000000E+00 2.35331299E-06 0.00000000E+00
 4 45-3.41186783E-06-1.25096740E-11 1.91628709E-06-2.47825578E-06 0.00000000E+00
 4 46 1.25072759E-06-5.02070444E-06-1.28340857E-04 2.58771121E-04 2.15748689E-06
 4 47 1.04584233E-06 0.00000000E+00-2.19119467E-05-4.50219551E-05 0.00000000E+00
 4 48 1.70827054E-05 5.26912375E-05 0.00000000E+00 1.68148768E-06-5.42903436E-06
 4 49 3.74754669E-06-5.50408900E-06 0.00000000E+00-1.14094571E-11-5.17411887E-06
 4 50 3.10278513E-06 2.07133374E-06-5.33594662E-06-1.79579273E-11 0.00000000E+00
 4 51 8.32966080E-07 3.19589780E-07 0.00000000E+00-2.34834795E-06 0.00000000E+00
 4 52-2.74899393E-06-1.24650907E-11 1.63145266E-06 1.91957326E-06 0.00000000E+00
 4 53-2.81759539E-06 1.13101232E-05 2.89120002E-04-5.82938427E-04 4.47122215E-06
 4 54-9.70016728E-08 0.00000000E+00-1.12515858E-04-2.54856147E-07 1.61787433E-11
 4 55 1.22036784E-04 8.32807122E-07-3.09062112E-11 1.75250868E-05-9.08283732E-06
 4 56-8.44224945E-06 5.79064768E-08 3.32289283E-11 0.00000000E+00 6.68739380E-06
 4 57-2.02108298E-06-4.66631081E-06-4.90704127E-07-1.21603438E-11 0.00000000E+00
 4 58-7.05174725E-06-8.21436120E-08 0.00000000E+00 1.42869752E-07-2.83512378E-11
 4 59 3.87835797E-06 2.32752497E-11 5.58255376E-06-3.26625318E-08 0.00000000E+00
 4 60-4.53637062E-11 1.31538693E-10 6.82245871E-10 1.09059996E-09 1.27010179E-05
 4 61-8.22642069E-07 8.17514589E-11-2.87926270E-05 1.86489037E-06-9.03499588E-11
 4 62-8.03271331E-06 5.20252486E-07 1.17522713E-09-1.81466170E-06 1.81463485E-06
 4 63 3.09226928E-11-1.35707191E-07 3.29189525E-06-2.13217222E-07-6.18389391E-06
 4 64 6.18361170E-06 2.84457992E-10-4.62509561E-07-7.25120430E-05 4.69665017E-06
 4 65 1.68954408E-06-1.09416453E-07-1.02209128E-10-4.89337967E-08-4.96290010E-06
 4 66 7.55557911E-07 4.96303974E-06-3.02231916E-06 1.95731373E-07-3.71181099E-07
 4 67-2.71114450E-11 1.11934749E-10-3.61705344E-10 2.93259011E-09 1.27010203E-05
 4 68-8.22641665E-07-6.69538941E-11-2.87926287E-05 1.86489640E-06-2.05605611E-10
 4 69-8.03283324E-06 5.20239012E-07-4.02074556E-09-1.81463566E-06 1.81462864E-06