 !#############################################################################
 !                   D_3h RHF GEOMETRY OPTIMIZATION AND HESSIAN TEMPLATE
 ! ---------------------------------------------------------------------------
 ! Replace the symmetry-correct coordinates, should only be two atoms.  
 ! The hydrogen or fluorine should have only one non-zero x,y,z coordinate.
 ! 
 ! Basis set?   gbasis=ccd for 2nd row, 
 !                         cct 3rd/4th,
 !                   SPKrTZP for heavy,
 !                   SPKrTZC beyond 4th
 ! 
 !#############################################################################
 $system kdiag=3 mwords=300 memddi=1500 parall=.t. $end
 $contrl runtyp=energy ispher=1 $end
 $contrl icut=9 itol=20 inttyp=rysquad qmttol=1.0d-05 nosym=0 $end
 $contrl scftyp=rhf  mult=1 maxit=200 icharg=0 mplevl=2 $end
 $scf    npunch=2 conv=1.0d-06 dirscf=.t. $end
 $force  method=seminum $end
 $trans  dirtrf=.t. $end
 $statpt hssend=.t. $end
 $basis  gbasis=SPKrTZP $end
 !#############################################################################
 !
 !                       TURN ON THIS SECTION IF HEAVY ATOM
 !
 !#############################################################################
 !
 $contrl relwfn=LUT-IOTC $end
 $scf  diis=.t. soscf=.f. ethrsh=10.0 $end
 -guess iorder(25)=27,25,26 $end
 -gmcpt nsolut=100 $end
 !
 !#############################################################################
 !
 ! TURN ON THIS SECTION IF GMCPT, CHANGE runtyp=energy, scftyp=mcscf, change nosym=1
 !
 !#############################################################################
 $guess  guess=moread norb=369 purify=.t. norder=1 $end
 $mp2    mp2prp=.t. $end
 -mcscf  cistep=gmcci fullnr=.t. finci=mos
         acurcy=1.d-6 maxit=100 $end
 -mrmp   mrpt=gmcpt rdvecs=.f. $end
 -gmcpt  nmofzc=27 nmodoc=0 nmoact=5 nelact=5 stsym(1)=A
         reftyp=ormas nspace=1 mstart(1)=28 mine(1)=5 maxe(1)=5
         kstate(1)=1
         wstate(1)=1
         iwgt=0 thrwgt=-1.0 krot=.f. kszdoe=.f. knospn=.f.
         thrde=-1.0 edshft=0.02 $end
 !#############################################################################
 !
 !             TURN OFF THIS SECTION IF temp.inp, add C1
 !
 !    IF SOC, $transt $end, turn knospn=.t., restart from gmcpt states calc
 !
 !#############################################################################
 $data
 Iron pentacarbonyl optimization
DNH 3

 FE         26.0  -0.0000000000   0.0000000000   0.0000000000
 C           6.0   1.7648888155   0.0000000000   0.0000000000
 O           8.0   2.9173831893   0.0000000000   0.0000000000
 C           6.0  -0.0000000000   0.0000000000   1.6781093310
 O           8.0  -0.0000000000   0.0000000000   2.8433375200
 $end
--- OPTIMIZED RHF      MO-S --- GENERATED AT Sat Mar 16 23:08:38 2024
E=    -1837.8997466190, E(NUC)=  825.5537622460
 $VEC   
 1  1-9.97431283E-01-1.19475468E-02-3.45805728E-03 7.26399773E-03-2.25105618E-03
 1  2 3.49960266E-03-6.95146705E-04 7.88661431E-05 0.00000000E+00 0.00000000E+00
 1  3 0.00000000E+00 0.00000000E+00 0.00000000E+00 0.00000000E+00 0.00000000E+00
 1  4 0.00000000E+00 0.00000000E+00 0.00000000E+00 0.00000000E+00 0.00000000E+00
 1  5 0.00000000E+00 0.00000000E+00 0.00000000E+00 0.00000000E+00 0.00000000E+00
 1  6 0.00000000E+00-3.41197030E-06-3.41197030E-06 6.82394060E-06 0.00000000E+00
 1  7 0.00000000E+00 0.00000000E+00 1.69003914E-05 1.69003914E-05-3.38007828E-05
 1  8 0.00000000E+00 0.00000000E+00 0.00000000E+00-1.33828508E-04-1.33828508E-04
 1  9 2.67657017E-04 0.00000000E+00 0.00000000E+00 0.00000000E+00 4.72387868E-05
 1 10 4.72387868E-05-9.44775736E-05 0.00000000E+00 0.00000000E+00 0.00000000E+00
 1 11-1.57049856E-05 0.00000000E+00 0.00000000E+00 0.00000000E+00 0.00000000E+00
 1 12 2.10704492E-05 0.00000000E+00 0.00000000E+00 0.00000000E+00 0.00000000E+00
 1 13 1.12571261E-04 0.00000000E+00 0.00000000E+00 0.00000000E+00 0.00000000E+00
 1 14-1.51030195E-04 0.00000000E+00 0.00000000E+00 0.00000000E+00 0.00000000E+00
 1 15 1.77264006E-05 1.77264006E-05 4.72704015E-05 0.00000000E+00 0.00000000E+00
 1 16 0.00000000E+00 0.00000000E+00 0.00000000E+00 0.00000000E+00 1.03795174E-05
 1 17-4.15180695E-05-4.15180695E-05 0.00000000E+00 0.00000000E+00 0.00000000E+00
 1 18 3.01564113E-05 1.93002252E-04-5.32217057E-04-3.64934383E-05 1.43167425E-05
 1 19-2.47973254E-05 0.00000000E+00-1.12431616E-04 1.94737270E-04 0.00000000E+00
 1 20 1.05931159E-04-1.83478150E-04 0.00000000E+00-1.56949036E-06 5.23084704E-06
 1 21-3.66135669E-06-6.80033740E-06 0.00000000E+00 0.00000000E+00 2.58699713E-05
 1 22-1.41464760E-04 1.15594789E-04 1.67334731E-04 0.00000000E+00 0.00000000E+00
 1 23 3.73612082E-05 2.81012072E-05 0.00000000E+00 1.25672419E-05 0.00000000E+00
 1 24-7.91481227E-05 0.00000000E+00 2.90228020E-05-5.02689676E-05 0.00000000E+00
 1 25 3.01564113E-05 1.93002252E-04-5.32217057E-04-3.64934383E-05 1.43167425E-05
 1 26 2.47973254E-05 0.00000000E+00-1.12431616E-04-1.94737270E-04 0.00000000E+00
 1 27 1.05931159E-04 1.83478150E-04 0.00000000E+00-1.56949036E-06 5.23084704E-06
 1 28-3.66135669E-06 6.80033740E-06 0.00000000E+00 0.00000000E+00 2.58699713E-05
 1 29-1.41464760E-04 1.15594789E-04-1.67334731E-04 0.00000000E+00 0.00000000E+00
 1 30 3.73612082E-05-2.81012072E-05 0.00000000E+00-1.25672419E-05 0.00000000E+00
 1 31-7.91481227E-05 0.00000000E+00 2.90228020E-05 5.02689676E-05 0.00000000E+00
 1 32 3.01564113E-05 1.93002252E-04-5.32217057E-04-3.64934383E-05-2.86334850E-05
 1 33 0.00000000E+00 0.00000000E+00 2.24863231E-04 0.00000000E+00 0.00000000E+00
 1 34-2.11862319E-04 0.00000000E+00 0.00000000E+00 8.63101574E-06-4.96965905E-06
 1 35-3.66135669E-06 0.00000000E+00 0.00000000E+00 0.00000000E+00-2.25132126E-04
 1 36 1.09537337E-04 1.15594789E-04 0.00000000E+00 0.00000000E+00 0.00000000E+00
 1 37 8.60339268E-05 0.00000000E+00 0.00000000E+00 0.00000000E+00 0.00000000E+00
 1 38-5.73810213E-05 0.00000000E+00-5.80456039E-05 0.00000000E+00 0.00000000E+00
 1 39 3.76267298E-07-1.66539813E-05-5.80500595E-06 3.67810943E-04 1.39481586E-06
 1 40-2.41589193E-06 0.00000000E+00-2.94626772E-05 5.10308538E-05 0.00000000E+00
 1 41 5.33266954E-05-9.23645458E-05 0.00000000E+00 1.15854450E-06-5.83102124E-06
 1 42 4.67247674E-06 6.98956575E-06 0.00000000E+00 0.00000000E+00 4.18492076E-06
 1 43-1.99348278E-05 1.57499071E-05 2.41197486E-05 0.00000000E+00 0.00000000E+00
 1 44 6.65331442E-06 4.74853936E-06 0.00000000E+00 2.12361136E-06 0.00000000E+00
 1 45-1.38306284E-05 0.00000000E+00 4.90427036E-06-8.49444544E-06 0.00000000E+00
 1 46 3.76267298E-07-1.66539813E-05-5.80500595E-06 3.67810943E-04 1.39481586E-06
 1 47 2.41589193E-06 0.00000000E+00-2.94626772E-05-5.10308538E-05 0.00000000E+00
 1 48 5.33266954E-05 9.23645458E-05 0.00000000E+00 1.15854450E-06-5.83102124E-06
 1 49 4.67247674E-06-6.98956575E-06 0.00000000E+00 0.00000000E+00 4.18492076E-06
 1 50-1.99348278E-05 1.57499071E-05-2.41197486E-05 0.00000000E+00 0.00000000E+00
 1 51 6.65331442E-06-4.74853936E-06 0.00000000E+00-2.12361136E-06 0.00000000E+00
 1 52-1.38306284E-05 0.00000000E+00 4.90427036E-06 8.49444544E-06 0.00000000E+00
 1 53 3.76267298E-07-1.66539813E-05-5.80500595E-06 3.67810943E-04-2.78963171E-06
 1 54 0.00000000E+00 0.00000000E+00 5.89253543E-05 0.00000000E+00 0.00000000E+00
 1 55-1.06653391E-04 0.00000000E+00 0.00000000E+00-9.32580412E-06 4.65332738E-06
 1 56 4.67247674E-06 0.00000000E+00 0.00000000E+00 0.00000000E+00-3.19947021E-05
 1 57 1.62447950E-05 1.57499071E-05 0.00000000E+00 0.00000000E+00 0.00000000E+00
 1 58 1.48780259E-05 0.00000000E+00 0.00000000E+00 0.00000000E+00 0.00000000E+00
 1 59-1.01524256E-05 0.00000000E+00-9.80854072E-06 0.00000000E+00 0.00000000E+00
 1 60 4.35635275E-05 2.52923890E-04-7.64851945E-04-8.25992778E-07 0.00000000E+00
 1 61 0.00000000E+00 3.05350611E-05 0.00000000E+00 0.00000000E+00-3.08203105E-04
 1 62 0.00000000E+00 0.00000000E+00 1.99169206E-04 2.37438514E-06 2.37438514E-06
 1 63-4.74877028E-06 0.00000000E+00 0.00000000E+00 0.00000000E+00 1.74221224E-04
 1 64 1.74221224E-04-3.48442448E-04 0.00000000E+00 0.00000000E+00 0.00000000E+00
 1 65 1.66866504E-07 0.00000000E+00-9.05418276E-05 0.00000000E+00 6.07373044E-05
 1 66-2.23874908E-07 6.07373044E-05 0.00000000E+00 0.00000000E+00 0.00000000E+00
 1 67 4.35635275E-05 2.52923890E-04-7.64851945E-04-8.25992778E-07 0.00000000E+00
 1 68 0.00000000E+00-3.05350611E-05 0.00000000E+00 0.00000000E+00 3.08203105E-04
 1 69 0.00000000E+00 0.00000000E+00-1.99169206E-04 2.37438514E-06 2.37438514E-06
 1 70-4.74877028E-06 0.00000000E+00 0.00000000E+00 0.00000000E+00 1.74221224E-04
 1 71 1.74221224E-04-3.48442448E-04 0.00000000E+00 0.00000000E+00 0.00000000E+00
 1 72 1.66866504E-07 0.00000000E+00 9.05418276E-05 0.00000000E+00-6.07373044E-05
 1 73-2.23874908E-07-6.07373044E-05 0.00000000E+00 0.00000000E+00 0.00000000E+00
 1 74-5.86155776E-07-2.34285509E-05 8.54979866E-05 3.74235100E-04 0.00000000E+00
 1 75 0.00000000E+00 2.70701613E-06 0.00000000E+00 0.00000000E+00-4.88124744E-05
 1 76 0.00000000E+00 0.00000000E+00 1.21849574E-04 3.45594907E-06 3.45594907E-06
 1 77-6.91189815E-06 0.00000000E+00 0.00000000E+00 0.00000000E+00 2.06489471E-05
 1 78 2.06489471E-05-4.12978941E-05 0.00000000E+00 0.00000000E+00 0.00000000E+00
 1 79 1.33031424E-07 0.00000000E+00-1.61673102E-05 0.00000000E+00 1.08453614E-05
 1 80-1.78480385E-07 1.08453614E-05 0.00000000E+00 0.00000000E+00 0.00000000E+00
 1 81-5.86155776E-07-2.34285509E-05 8.54979866E-05 3.74235100E-04 0.00000000E+00
 1 82 0.00000000E+00-2.70701613E-06 0.00000000E+00 0.00000000E+00 4.88124744E-05
 1 83 0.00000000E+00 0.00000000E+00-1.21849574E-04 3.45594907E-06 3.45594907E-06
 1 84-6.91189815E-06 0.00000000E+00 0.00000000E+00 0.00000000E+00 2.06489471E-05
 1 85 2.06489471E-05-4.12978941E-05 0.00000000E+00 0.00000000E+00 0.00000000E+00
 1 86 1.33031424E-07 0.00000000E+00 1.61673102E-05 0.00000000E+00-1.08453614E-05
 1 87-1.78480385E-07-1.08453614E-05 0.00000000E+00 0.00000000E+00 0.00000000E+00
 2  1-3.20564432E-01 1.04856610E+00 2.74758690E-02-1.45980433E-02 4.94070203E-03
 2  2-1.11816444E-02 1.28933049E-03-2.49707760E-04 0.00000000E+00 0.00000000E+00
 2  3 0.00000000E+00 0.00000000E+00 0.00000000E+00 0.00000000E+00 0.00000000E+00
 2  4 0.00000000E+00 0.00000000E+00 0.00000000E+00 0.00000000E+00 0.00000000E+00
 2  5 0.00000000E+00 0.00000000E+00 0.00000000E+00 0.00000000E+00 0.00000000E+00
 2  6 0.00000000E+00-3.44315222E-04-3.44315222E-04 6.88630444E-04 0.00000000E+00
 2  7 0.00000000E+00 0.00000000E+00 2.48112102E-04 2.48112102E-04-4.96224204E-04
 2  8 0.00000000E+00 0.00000000E+00 0.00000000E+00 3.66546077E-04 3.66546077E-04
 2  9-7.33092153E-04 0.00000000E+00 0.00000000E+00 0.00000000E+00 8.32173095E-05
 2 10 8.32173095E-05-1.66434619E-04 0.00000000E+00 0.00000000E+00 0.00000000E+00
 2 11 9.31548082E-05 0.00000000E+00 0.00000000E+00 0.00000000E+00 0.00000000E+00
 2 12-1.24980290E-04 0.00000000E+00 0.00000000E+00 0.00000000E+00 0.00000000E+00
 2 13-4.69921066E-04 0.00000000E+00 0.00000000E+00 0.00000000E+00 0.00000000E+00
 2 14 6.30465269E-04 0.00000000E+00 0.00000000E+00 0.00000000E+00 0.00000000E+00
 2 15-1.21005093E-04-1.21005093E-04-3.22680248E-04 0.00000000E+00 0.00000000E+00
 2 16 0.00000000E+00 0.00000000E+00 0.00000000E+00 0.00000000E+00-7.08533276E-05
 2 17 2.83413310E-04 2.83413310E-04 0.00000000E+00 0.00000000E+00 0.00000000E+00
 2 18-1.06476590E-04-6.97026213E-04 1.71749253E-03 4.13797103E-05-7.10159610E-05
 2 19 1.23003253E-04 0.00000000E+00 5.20766923E-04-9.01994769E-04 0.00000000E+00
 2 20-3.81124326E-04 6.60126697E-04 0.00000000E+00 4.68953020E-06-1.85531331E-05
 2 21 1.38636029E-05 2.32426633E-05 0.00000000E+00 0.00000000E+00-8.73490765E-05
 2 22 4.60631909E-04-3.73282833E-04-5.47980986E-04 0.00000000E+00 0.00000000E+00
 2 23-1.74036818E-04-1.25817715E-04 0.00000000E+00-5.62673925E-05 0.00000000E+00
 2 24 3.63438870E-04 0.00000000E+00-1.29943977E-04 2.25069570E-04 0.00000000E+00
 2 25-1.06476590E-04-6.97026213E-04 1.71749253E-03 4.13797103E-05-7.10159610E-05
 2 26-1.23003253E-04 0.00000000E+00 5.20766923E-04 9.01994769E-04 0.00000000E+00
 2 27-3.81124326E-04-6.60126697E-04 0.00000000E+00 4.68953020E-06-1.85531331E-05
 2 28 1.38636029E-05-2.32426633E-05 0.00000000E+00 0.00000000E+00-8.73490765E-05
 2 29 4.60631909E-04-3.73282833E-04 5.47980986E-04 0.00000000E+00 0.00000000E+00
 2 30-1.74036818E-04 1.25817715E-04 0.00000000E+00 5.62673925E-05 0.00000000E+00
 2 31 3.63438870E-04 0.00000000E+00-1.29943977E-04-2.25069570E-04 0.00000000E+00
 2 32-1.06476590E-04-6.97026213E-04 1.71749253E-03 4.13797103E-05 1.42031922E-04
 2 33 0.00000000E+00 0.00000000E+00-1.04153385E-03 0.00000000E+00 0.00000000E+00
 2 34 7.62248652E-04 0.00000000E+00 0.00000000E+00-3.01744648E-05 1.63108619E-05
 2 35 1.38636029E-05 0.00000000E+00 0.00000000E+00 0.00000000E+00 7.34622402E-04
 2 36-3.61339569E-04-3.73282833E-04 0.00000000E+00 0.00000000E+00 0.00000000E+00
 2 37-3.91959492E-04 0.00000000E+00 0.00000000E+00 0.00000000E+00 0.00000000E+00
 2 38 2.65980887E-04 0.00000000E+00 2.59887954E-04 0.00000000E+00 0.00000000E+00
 2 39-3.93275430E-06 6.09341531E-05 2.51399839E-04-1.25516708E-03-8.64314252E-06
 2 40 1.49703620E-05 0.00000000E+00 1.57316821E-04-2.72480726E-04 0.00000000E+00
 2 41-1.64465401E-04 2.84862431E-04 0.00000000E+00-5.69939124E-06 2.67198607E-05
 2 42-2.10204695E-05-3.24192519E-05 0.00000000E+00 0.00000000E+00-1.70363025E-05
 2 43 8.44865174E-05-6.74502149E-05-1.01522820E-04 0.00000000E+00 0.00000000E+00
 2 44-2.46326929E-05-1.73507980E-05 0.00000000E+00-7.75951274E-06 0.00000000E+00
 2 45 5.09680526E-05 0.00000000E+00-1.79198271E-05 3.10380510E-05 0.00000000E+00
 2 46-3.93275430E-06 6.09341531E-05 2.51399839E-04-1.25516708E-03-8.64314252E-06
 2 47-1.49703620E-05 0.00000000E+00 1.57316821E-04 2.72480726E-04 0.00000000E+00
 2 48-1.64465401E-04-2.84862431E-04 0.00000000E+00-5.69939124E-06 2.67198607E-05
 2 49-2.10204695E-05 3.24192519E-05 0.00000000E+00 0.00000000E+00-1.70363025E-05
 2 50 8.44865174E-05-6.74502149E-05 1.01522820E-04 0.00000000E+00 0.00000000E+00
 2 51-2.46326929E-05 1.73507980E-05 0.00000000E+00 7.75951274E-06 0.00000000E+00
 2 52 5.09680526E-05 0.00000000E+00-1.79198271E-05-3.10380510E-05 0.00000000E+00
 2 53-3.93275430E-06 6.09341531E-05 2.51399839E-04-1.25516708E-03 1.72862850E-05
 2 54 0.00000000E+00 0.00000000E+00-3.14633641E-04 0.00000000E+00 0.00000000E+00
 2 55 3.28930802E-04 0.00000000E+00 0.00000000E+00 4.29294867E-05-2.19090172E-05
 2 56-2.10204695E-05 0.00000000E+00 0.00000000E+00 0.00000000E+00 1.35247927E-04
 2 57-6.77977125E-05-6.74502149E-05 0.00000000E+00 0.00000000E+00 0.00000000E+00
 2 58-5.46851565E-05 0.00000000E+00 0.00000000E+00 0.00000000E+00 0.00000000E+00
 2 59 3.75281823E-05 0.00000000E+00 3.58396542E-05 0.00000000E+00 0.00000000E+00
 2 60-1.42197855E-04-8.35713866E-04 2.41166607E-03 3.10151076E-04 0.00000000E+00
 2 61 0.00000000E+00-1.55927795E-04 0.00000000E+00 0.00000000E+00 1.46990624E-03
 2 62 0.00000000E+00 0.00000000E+00-2.04110996E-04-8.01875958E-06-8.01875958E-06
 2 63 1.60375192E-05 0.00000000E+00 0.00000000E+00 0.00000000E+00-5.45270661E-04
 2 64-5.45270661E-04 1.09054132E-03 0.00000000E+00 0.00000000E+00 0.00000000E+00
 2 65 1.97015230E-08 0.00000000E+00 4.14641483E-04 0.00000000E+00-2.78149963E-04
 2 66-2.64323668E-08-2.78149963E-04 0.00000000E+00 0.00000000E+00 0.00000000E+00
 2 67-1.42197855E-04-8.35713866E-04 2.41166607E-03 3.10151076E-04 0.00000000E+00
 2 68 0.00000000E+00 1.55927795E-04 0.00000000E+00 0.00000000E+00-1.46990624E-03
 2 69 0.00000000E+00 0.00000000E+00 2.04110996E-04-8.01875958E-06-8.01875958E-06
 2 70 1.60375192E-05 0.00000000E+00 0.00000000E+00 0.00000000E+00-5.45270661E-04
 2 71-5.45270661E-04 1.09054132E-03 0.00000000E+00 0.00000000E+00 0.00000000E+00
 2 72 1.97015230E-08 0.00000000E+00-4.14641483E-04 0.00000000E+00 2.78149963E-04
 2 73-2.64323668E-08 2.78149963E-04 0.00000000E+00 0.00000000E+00 0.00000000E+00
 2 74-2.11228499E-06 7.69132993E-05 1.30319091E-05-8.99353539E-04 0.00000000E+00
 2 75 0.00000000E+00-2.12187891E-05 0.00000000E+00 0.00000000E+00 3.13320555E-04
 2 76 0.00000000E+00 0.00000000E+00-2.69405135E-04-1.80464738E-05-1.80464738E-05
 2 77 3.60929476E-05 0.00000000E+00 0.00000000E+00 0.00000000E+00-8.85129368E-05
 2 78-8.85129368E-05 1.77025874E-04 0.00000000E+00 0.00000000E+00 0.00000000E+00
 2 79-3.97766558E-07 0.00000000E+00 5.80783448E-05 0.00000000E+00-3.89601381E-05
 2 80 5.33659838E-07-3.89601381E-05 0.00000000E+00 0.00000000E+00 0.00000000E+00
 2 81-2.11228499E-06 7.69132993E-05 1.30319091E-05-8.99353539E-04 0.00000000E+00
 2 82 0.00000000E+00 2.12187891E-05 0.00000000E+00 0.00000000E+00-3.13320555E-04
 2 83 0.00000000E+00 0.00000000E+00 2.69405135E-04-1.80464738E-05-1.80464738E-05
 2 84 3.60929476E-05 0.00000000E+00 0.00000000E+00 0.00000000E+00-8.85129368E-05
 2 85-8.85129368E-05 1.77025874E-04 0.00000000E+00 0.00000000E+00 0.00000000E+00
 2 86-3.97766558E-07 0.00000000E+00-5.80783448E-05 0.00000000E+00 3.89601381E-05
 2 87 5.33659838E-07 3.89601381E-05 0.00000000E+00 0.00000000E+00 0.00000000E+00
 3  1 0.00000000E+00 0.00000000E+00 0.00000000E+00 0.00000000E+00 0.00000000E+00
 3  2 0.00000000E+00 0.00000000E+00 0.00000000E+00 0.00000000E+00 0.00000000E+00
 3  3-9.97591842E-01 0.00000000E+00 0.00000000E+00-3.39972739E-04 0.00000000E+00
 3  4 0.00000000E+00-8.89328114E-03 0.00000000E+00 0.00000000E+00 2.63797747E-03
 3  5 0.00000000E+00 0.00000000E+00-1.50441895E-03 0.00000000E+00 0.00000000E+00
 3  6-6.75554278E-04 0.00000000E+00 0.00000000E+00 0.00000000E+00 0.00000000E+00
 3  7 0.00000000E+00 0.00000000E+00 0.00000000E+00 0.00000000E+00 0.00000000E+00
 3  8 0.00000000E+00 0.00000000E+00 0.00000000E+00 0.00000000E+00 0.00000000E+00
 3  9 0.00000000E+00 0.00000000E+00 0.00000000E+00 0.00000000E+00 0.00000000E+00
 3 10 0.00000000E+00 0.00000000E+00 0.00000000E+00 0.00000000E+00 0.00000000E+00
 3 11 0.00000000E+00 0.00000000E+00 5.27024881E-04 0.00000000E+00-3.53539038E-04
 3 12 0.00000000E+00-3.53539038E-04 0.00000000E+00 0.00000000E+00 0.00000000E+00
 3 13 0.00000000E+00 0.00000000E+00-4.17948528E-05 0.00000000E+00 2.80368396E-05
 3 14 0.00000000E+00 2.80368396E-05 0.00000000E+00 0.00000000E+00 0.00000000E+00
 3 15 0.00000000E+00 0.00000000E+00 0.00000000E+00 0.00000000E+00-1.72461718E-06
 3 16 0.00000000E+00 0.00000000E+00 0.00000000E+00 0.00000000E+00 0.00000000E+00
 3 17 0.00000000E+00 0.00000000E+00 0.00000000E+00 2.31381675E-06 0.00000000E+00
 3 18 0.00000000E+00 0.00000000E+00 0.00000000E+00 0.00000000E+00 0.00000000E+00
 3 19 0.00000000E+00-5.48448321E-06 0.00000000E+00 0.00000000E+00-5.33757294E-06
 3 20 0.00000000E+00 0.00000000E+00-4.21549477E-05 0.00000000E+00 0.00000000E+00
 3 21 0.00000000E+00 0.00000000E+00 3.69949152E-07-6.40770728E-07 0.00000000E+00
 3 22 0.00000000E+00 0.00000000E+00 0.00000000E+00 2.23445822E-05-3.87019516E-05
 3 23 0.00000000E+00 0.00000000E+00 9.48301791E-06 0.00000000E+00-7.64273837E-07
 3 24 0.00000000E+00-1.19585298E-05 0.00000000E+00 0.00000000E+00 1.11942559E-05
 3 25 0.00000000E+00 0.00000000E+00 0.00000000E+00 0.00000000E+00 0.00000000E+00
 3 26 0.00000000E+00-5.48448321E-06 0.00000000E+00 0.00000000E+00-5.33757294E-06
 3 27 0.00000000E+00 0.00000000E+00-4.21549477E-05 0.00000000E+00 0.00000000E+00
 3 28 0.00000000E+00 0.00000000E+00 3.69949152E-07 6.40770728E-07 0.00000000E+00
 3 29 0.00000000E+00 0.00000000E+00 0.00000000E+00 2.23445822E-05 3.87019516E-05
 3 30 0.00000000E+00 0.00000000E+00 9.48301791E-06 0.00000000E+00-7.64273837E-07
 3 31 0.00000000E+00-1.19585298E-05 0.00000000E+00 0.00000000E+00-1.11942559E-05
 3 32 0.00000000E+00 0.00000000E+00 0.00000000E+00 0.00000000E+00 0.00000000E+00
 3 33 0.00000000E+00-5.48448321E-06 0.00000000E+00 0.00000000E+00-5.33757294E-06
 3 34 0.00000000E+00 0.00000000E+00-4.21549477E-05 0.00000000E+00 0.00000000E+00
 3 35 0.00000000E+00 0.00000000E+00-7.39898304E-07 0.00000000E+00 0.00000000E+00
 3 36 0.00000000E+00 0.00000000E+00 0.00000000E+00-4.46891644E-05 0.00000000E+00
 3 37 0.00000000E+00 0.00000000E+00 9.48301791E-06 0.00000000E+00-1.75556577E-05
 3 38 0.00000000E+00 4.83285413E-06 0.00000000E+00 0.00000000E+00 0.00000000E+00
 3 39 0.00000000E+00 0.00000000E+00 0.00000000E+00 0.00000000E+00 0.00000000E+00
 3 40 0.00000000E+00-1.17803421E-06 0.00000000E+00 0.00000000E+00 1.97929118E-05
 3 41 0.00000000E+00 0.00000000E+00 3.63162957E-05 0.00000000E+00 0.00000000E+00
 3 42 0.00000000E+00 0.00000000E+00-1.08566363E-06 1.88042457E-06 0.00000000E+00
 3 43 0.00000000E+00 0.00000000E+00 0.00000000E+00 1.10517023E-05-1.91421099E-05
 3 44 0.00000000E+00 0.00000000E+00-1.96503133E-06 0.00000000E+00 2.02722351E-07
 3 45 0.00000000E+00 2.43364383E-06 0.00000000E+00 0.00000000E+00-2.23092148E-06
 3 46 0.00000000E+00 0.00000000E+00 0.00000000E+00 0.00000000E+00 0.00000000E+00
 3 47 0.00000000E+00-1.17803421E-06 0.00000000E+00 0.00000000E+00 1.97929118E-05
 3 48 0.00000000E+00 0.00000000E+00 3.63162957E-05 0.00000000E+00 0.00000000E+00
 3 49 0.00000000E+00 0.00000000E+00-1.08566363E-06-1.88042457E-06 0.00000000E+00
 3 50 0.00000000E+00 0.00000000E+00 0.00000000E+00 1.10517023E-05 1.91421099E-05
 3 51 0.00000000E+00 0.00000000E+00-1.96503133E-06 0.00000000E+00 2.02722351E-07
 3 52 0.00000000E+00 2.43364383E-06 0.00000000E+00 0.00000000E+00 2.23092148E-06
 3 53 0.00000000E+00 0.00000000E+00 0.00000000E+00 0.00000000E+00 0.00000000E+00
 3 54 0.00000000E+00-1.17803421E-06 0.00000000E+00 0.00000000E+00 1.97929118E-05
 3 55 0.00000000E+00 0.00000000E+00 3.63162957E-05 0.00000000E+00 0.00000000E+00
 3 56 0.00000000E+00 0.00000000E+00 2.17132726E-06 0.00000000E+00 0.00000000E+00
 3 57 0.00000000E+00 0.00000000E+00 0.00000000E+00-2.21034046E-05 0.00000000E+00
 3 58 0.00000000E+00 0.00000000E+00-1.96503133E-06 0.00000000E+00 3.54910457E-06
 3 59 0.00000000E+00-9.12738389E-07 0.00000000E+00 0.00000000E+00 0.00000000E+00
 3 60-6.11852495E-06 2.09638527E-05-6.89656588E-05-4.23448867E-04 0.00000000E+00
 3 61 0.00000000E+00-2.68890356E-06 0.00000000E+00 0.00000000E+00-4.96174302E-05
 3 62 0.00000000E+00 0.00000000E+00-6.62723862E-04-4.76721178E-06-4.76721178E-06
 3 63 9.53442356E-06 0.00000000E+00 0.00000000E+00 0.00000000E+00 3.60296351E-05
 3 64 3.60296351E-05-7.20592701E-05 0.00000000E+00 0.00000000E+00 0.00000000E+00
 3 65 9.52058924E-07 0.00000000E+00 5.70120704E-05 0.00000000E+00-3.82448595E-05
 3 66-1.27732108E-06-3.82448595E-05 0.00000000E+00 0.00000000E+00 0.00000000E+00
 3 67 6.11852495E-06-2.09638527E-05 6.89656588E-05 4.23448867E-04 0.00000000E+00
 3 68 0.00000000E+00-2.68890356E-06 0.00000000E+00 0.00000000E+00-4.96174302E-05
 3 69 0.00000000E+00 0.00000000E+00-6.62723862E-04 4.76721178E-06 4.76721178E-06
 3 70-9.53442356E-06 0.00000000E+00 0.00000000E+00 0.00000000E+00-3.60296351E-05
 3 71-3.60296351E-05 7.20592701E-05 0.00000000E+00 0.00000000E+00 0.00000000E+00
 3 72-9.52058924E-07 0.00000000E+00 5.70120704E-05 0.00000000E+00-3.82448595E-05
 3 73 1.27732108E-06-3.82448595E-05 0.00000000E+00 0.00000000E+00 0.00000000E+00
 3 74-5.90743754E-07 4.46470773E-06 1.41279727E-04-5.04682635E-04 0.00000000E+00
 3 75 0.00000000E+00-9.56074148E-07 0.00000000E+00 0.00000000E+00 3.02053869E-05
 3 76 0.00000000E+00 0.00000000E+00-1.28059688E-04-4.03647912E-06-4.03647912E-06
 3 77 8.07295824E-06 0.00000000E+00 0.00000000E+00 0.00000000E+00 7.49680312E-06
 3 78 7.49680312E-06-1.49936062E-05 0.00000000E+00 0.00000000E+00 0.00000000E+00
 3 79-2.56846762E-07 0.00000000E+00 1.59201680E-06 0.00000000E+00-1.06795734E-06
 3 80 3.44596092E-07-1.06795734E-06 0.00000000E+00 0.00000000E+00 0.00000000E+00
 3 81 5.90743754E-07-4.46470773E-06-1.41279727E-04 5.04682635E-04 0.00000000E+00
 3 82 0.00000000E+00-9.56074148E-07 0.00000000E+00 0.00000000E+00 3.02053869E-05
 3 83 0.00000000E+00 0.00000000E+00-1.28059688E-04 4.03647912E-06 4.03647912E-06
 3 84-8.07295824E-06 0.00000000E+00 0.00000000E+00 0.00000000E+00-7.49680312E-06
 3 85-7.49680312E-06 1.49936062E-05 0.00000000E+00 0.00000000E+00 0.00000000E+00
 3 86 2.56846762E-07 0.00000000E+00 1.59201680E-06 0.00000000E+00-1.06795734E-06
 3 87-3.44596092E-07-1.06795734E-06 0.00000000E+00 0.00000000E+00 0.00000000E+00
 4  1 0.00000000E+00 0.00000000E+00 0.00000000E+00 0.00000000E+00 0.00000000E+00
 4  2 0.00000000E+00 0.00000000E+00 0.00000000E+00 9.97565406E-01 0.00000000E+00
 4  3 0.00000000E+00 2.19279783E-04 0.00000000E+00 0.00000000E+00 9.27333128E-03
 4  4 0.00000000E+00 0.00000000E+00-2.82263924E-03 0.00000000E+00 0.00000000E+00
 4  5 1.66583480E-03 0.00000000E+00 0.00000000E+00 1.15508098E-03 0.00000000E+00
 4  6 0.00000000E+00-1.15870672E-04 1.15870672E-04 0.00000000E+00 0.00000000E+00
 4  7 0.00000000E+00 0.00000000E+00 1.70970689E-04-1.70970689E-04 0.00000000E+00
 4  8 0.00000000E+00 0.00000000E+00 0.00000000E+00-4.14615522E-04 4.14615522E-04
 4  9 0.00000000E+00 0.00000000E+00 0.00000000E+00 0.00000000E+00 8.65903229E-04
 4 10-8.65903229E-04 0.00000000E+00 0.00000000E+00 0.00000000E+00 0.00000000E+00
 4 11-2.81078373E-04 0.00000000E+00 0.00000000E+00 0.00000000E+00 0.00000000E+00
 4 12-1.25702070E-04 0.00000000E+00 5.02808278E-04 0.00000000E+00 0.00000000E+00
 4 13 9.88711550E-05 0.00000000E+00 0.00000000E+00 0.00000000E+00 0.00000000E+00
 4 14 4.42165247E-05 0.00000000E+00-1.76866099E-04 0.00000000E+00 0.00000000E+00
 4 15 1.23212887E-05 3.94437394E-06 0.00000000E+00 0.00000000E+00 0.00000000E+00
 4 16 0.00000000E+00 0.00000000E+00 0.00000000E+00 0.00000000E+00-1.42862952E-05
 4 17-7.35752852E-06 7.35752852E-06 0.00000000E+00 0.00000000E+00 0.00000000E+00
 4 18-8.57799332E-06-6.50864568E-05 3.30523793E-04 3.47915220E-04 7.27207141E-06
 4 19 2.57080332E-06 0.00000000E+00 5.98524007E-05-5.02418602E-05 0.00000000E+00
 4 20 2.98321072E-04-4.03874769E-04 0.00000000E+00 3.91218119E-07-7.79360311E-07
 4 21 3.88142191E-07 4.12890720E-07 0.00000000E+00 0.00000000E+00 8.36428227E-06
 4 22 4.20005744E-05-5.03648567E-05-1.02668160E-04 0.00000000E+00 0.00000000E+00
 4 23 1.95330705E-05 9.43990412E-06 0.00000000E+00 8.81328040E-06 0.00000000E+00
 4 24-3.93764806E-05 0.00000000E+00 1.31701166E-05-2.14782408E-05 0.00000000E+00
 4 25-8.57799332E-06-6.50864568E-05 3.30523793E-04 3.47915220E-04 7.27207141E-06
 4 26-2.57080332E-06 0.00000000E+00 5.98524007E-05 5.02418602E-05 0.00000000E+00
 4 27 2.98321072E-04 4.03874769E-04 0.00000000E+00 3.91218119E-07-7.79360311E-07
 4 28 3.88142191E-07-4.12890720E-07 0.00000000E+00 0.00000000E+00 8.36428227E-06
 4 29 4.20005744E-05-5.03648567E-05 1.02668160E-04 0.00000000E+00 0.00000000E+00
 4 30 1.95330705E-05-9.43990412E-06 0.00000000E+00-8.81328040E-06 0.00000000E+00
 4 31-3.93764806E-05 0.00000000E+00 1.31701166E-05 2.14782408E-05 0.00000000E+00
 4 32 1.71559866E-05 1.30172914E-04-6.61047587E-04-6.95830440E-04 2.81930944E-06
 4 33 0.00000000E+00 0.00000000E+00 1.46873855E-04 0.00000000E+00 0.00000000E+00
 4 34 9.97852691E-04 0.00000000E+00 0.00000000E+00 1.59276749E-06-8.16483103E-07
 4 35-7.76284383E-07 0.00000000E+00 0.00000000E+00 0.00000000E+00-2.21185242E-04
 4 36 1.20455529E-04 1.00729713E-04 0.00000000E+00 0.00000000E+00 0.00000000E+00
 4 37-8.19493151E-05 0.00000000E+00 0.00000000E+00 0.00000000E+00 0.00000000E+00
 4 38 5.95750227E-05 0.00000000E+00 5.03715209E-05 0.00000000E+00 0.00000000E+00
 4 39 1.05874099E-06 7.70667235E-08-1.53168555E-04 3.17316237E-04-4.43749232E-06
 4 40-2.88159655E-06 0.00000000E+00-8.11610964E-06 2.91531846E-05 0.00000000E+00
 4 41 1.82531570E-05-6.05409658E-05 0.00000000E+00 1.07335785E-06-4.84408836E-06
 4 42 3.77073051E-06 4.41191260E-06 0.00000000E+00 0.00000000E+00-1.05446419E-06
 4 43 9.89689713E-06-8.84243294E-06-8.51426671E-06 0.00000000E+00 0.00000000E+00
 4 44 6.09602245E-07-1.58738940E-06 0.00000000E+00 6.67461025E-07 0.00000000E+00
 4 45-1.50935756E-07 0.00000000E+00-6.66931480E-07 1.46224534E-06 0.00000000E+00
 4 46 1.05874099E-06 7.70667234E-08-1.53168555E-04 3.17316237E-04-4.43749232E-06
 4 47 2.88159655E-06 0.00000000E+00-8.11610964E-06-2.91531846E-05 0.00000000E+00
 4 48 1.82531570E-05 6.05409658E-05 0.00000000E+00 1.07335785E-06-4.84408836E-06
 4 49 3.77073051E-06-4.41191260E-06 0.00000000E+00 0.00000000E+00-1.05446419E-06
 4 50 9.89689713E-06-8.84243294E-06 8.51426671E-06 0.00000000E+00 0.00000000E+00
 4 51 6.09602245E-07 1.58738940E-06 0.00000000E+00-6.67461025E-07 0.00000000E+00
 4 52-1.50935756E-07 0.00000000E+00-6.66931480E-07-1.46224534E-06 0.00000000E+00
 4 53-2.11748198E-06-1.54133447E-07 3.06337110E-04-6.34632475E-04 5.53579313E-07
 4 54 0.00000000E+00 0.00000000E+00-5.86109065E-05 0.00000000E+00 0.00000000E+00
 4 55 1.23113186E-04 0.00000000E+00 0.00000000E+00 1.33473225E-05-5.80586150E-06
 4 56-7.54146103E-06 0.00000000E+00 0.00000000E+00 0.00000000E+00-2.70895137E-05
 4 57 9.40464778E-06 1.76848659E-05 0.00000000E+00 0.00000000E+00 0.00000000E+00
 4 58 1.31508657E-06 0.00000000E+00 0.00000000E+00 0.00000000E+00 0.00000000E+00
 4 59 1.43524093E-06 0.00000000E+00-3.19961471E-06 0.00000000E+00 0.00000000E+00
 4 60 0.00000000E+00 0.00000000E+00 0.00000000E+00 0.00000000E+00 2.02607304E-06
 4 61 0.00000000E+00 0.00000000E+00 3.55347134E-05 0.00000000E+00 0.00000000E+00
 4 62-3.07577827E-07 0.00000000E+00 0.00000000E+00-3.43546049E-06 3.43546049E-06
 4 63 0.00000000E+00 0.00000000E+00 4.63835751E-06 0.00000000E+00-1.18471418E-05
 4 64 1.18471418E-05 0.00000000E+00 0.00000000E+00-2.87620949E-05 0.00000000E+00
 4 65-4.02931054E-05 0.00000000E+00 0.00000000E+00 0.00000000E+00-1.35456245E-05
 4 66-1.80196246E-05 1.35456245E-05 7.20784982E-05 0.00000000E+00 0.00000000E+00
 4 67 0.00000000E+00 0.00000000E+00 0.00000000E+00 0.00000000E+00 2.02607304E-06
 4 68 0.00000000E+00 0.00000000E+00 3.55347134E-05 0.00000000E+00 0.00000000E+00
 4 69-3.07577827E-07 0.00000000E+00 0.00000000E+00-3.43546049E-06 3.43546049E-06
 4 70 0.00000000E+00 0.00000000E+00-4.63835751E-06 0.00000000E+00-1.18471418E-05
 4 71 1.18471418E-05 0.00000000E+00 0.00000000E+00 2.87620949E-05 0.00000000E+00
 4 72-4.02931054E-05 0.00000000E+00 0.00000000E+00 0.00000000E+00 1.35456245E-05
 4 73-1.80196246E-05-1.35456245E-05 7.20784982E-05 0.00000000E+00 0.00000000E+00