 !#############################################################################
 !                   D_3h RHF GEOMETRY OPTIMIZATION AND HESSIAN TEMPLATE
 ! ---------------------------------------------------------------------------
 ! Replace the symmetry-correct coordinates, should only be two atoms.  
 ! The hydrogen or fluorine should have only one non-zero x,y,z coordinate.
 ! 
 ! Basis set?   gbasis=ccd for 2nd row, 
 !                         cct 3rd/4th,
 !                   SPKrTZP for heavy,
 !                   SPKrTZC beyond 4th
 ! 
 !#############################################################################
 $system kdiag=3 mwords=300 memddi=15000 parall=.t. $end
 $contrl runtyp=optimize ispher=1 $end
 $contrl icut=9 itol=20 inttyp=rysquad qmttol=1.0d-05 nosym=0 $end
 $contrl scftyp=rohf  mult=4 maxit=200 icharg=1 mplevl=2 $end
 $scf    npunch=2 conv=1.0d-06 dirscf=.t. $end
 $force  method=seminum $end
 $trans  dirtrf=.t. $end
 $statpt hssend=.t. $end
 $basis  gbasis=SPKrTZP $end
 !#############################################################################
 !
 !                       TURN ON THIS SECTION IF HEAVY ATOM
 !
 !#############################################################################
 !
 $contrl relwfn=LUT-IOTC $end
 $scf  diis=.t. soscf=.f. ethrsh=10.0 $end
 -guess iorder(25)=27,25,26 $end
 -gmcpt nsolut=100 $end
 !
 !#############################################################################
 !
 ! TURN ON THIS SECTION IF GMCPT, CHANGE runtyp=energy, scftyp=mcscf, change nosym=1
 !
 !#############################################################################
 $guess  guess=moread norb=369 purify=.t. norder=1 $end
 -mcscf  cistep=gmcci fullnr=.t. finci=mos
         acurcy=1.d-6 maxit=100 $end
 -mrmp   mrpt=gmcpt rdvecs=.f. $end
 -gmcpt  nmofzc=27 nmodoc=0 nmoact=5 nelact=5 stsym(1)=A
         reftyp=ormas nspace=1 mstart(1)=28 mine(1)=5 maxe(1)=5
         kstate(1)=1
         wstate(1)=1
         iwgt=0 thrwgt=-1.0 krot=.f. kszdoe=.f. knospn=.f.
         thrde=-1.0 edshft=0.02 $end
 !#############################################################################
 !
 !             TURN OFF THIS SECTION IF temp.inp, add C1
 !
 !    IF SOC, $transt $end, turn knospn=.t., restart from gmcpt states calc
 !
 !#############################################################################
 $data
 Iron pentacarbonyl optimization
DNH 3

 FE         26.0   0.0000000000  -0.0000000000   0.0000000000
 C           6.0   1.9447032541   0.0000000000   0.0000000000
 O           8.0   3.0872929011   0.0000000000   0.0000000000
 C           6.0   0.0000000000  -0.0000000000   2.0006139027
 O           8.0  -0.0000000000  -0.0000000000   3.1372475938
 $end
OPTIMIZED RHF      MO-S --- GENERATED AT Thu Mar 14 17:41:48 2024
E=    -1835.1143727488, E(NUC)=  758.9269559755
 $VEC   
 1  1 9.97448809E-01 1.21617090E-02 4.00993418E-03-7.58675759E-03 7.85434755E-04
 1  2-1.47664584E-03 1.06446200E-03-5.25360226E-05 0.00000000E+00 0.00000000E+00
 1  3 0.00000000E+00 0.00000000E+00 0.00000000E+00 0.00000000E+00 0.00000000E+00
 1  4 0.00000000E+00 0.00000000E+00 0.00000000E+00 0.00000000E+00 0.00000000E+00
 1  5 0.00000000E+00 0.00000000E+00 0.00000000E+00 0.00000000E+00 0.00000000E+00
 1  6 0.00000000E+00 5.25655954E-06 5.25655954E-06-1.05131191E-05 0.00000000E+00
 1  7 0.00000000E+00 0.00000000E+00-7.01452423E-06-7.01452423E-06 1.40290485E-05
 1  8 0.00000000E+00 0.00000000E+00 0.00000000E+00 2.14404126E-05 2.14404126E-05
 1  9-4.28808251E-05 0.00000000E+00 0.00000000E+00 0.00000000E+00-6.58248166E-05
 1 10-6.58248166E-05 1.31649633E-04 0.00000000E+00 0.00000000E+00 0.00000000E+00
 1 11 1.23223207E-05 0.00000000E+00 0.00000000E+00 0.00000000E+00 0.00000000E+00
 1 12-1.65321280E-05 0.00000000E+00 0.00000000E+00 0.00000000E+00 0.00000000E+00
 1 13-5.44449805E-05 0.00000000E+00 0.00000000E+00 0.00000000E+00 0.00000000E+00
 1 14 7.30456065E-05 0.00000000E+00 0.00000000E+00 0.00000000E+00 0.00000000E+00
 1 15-5.53173087E-06-5.53173087E-06-1.47512823E-05 0.00000000E+00 0.00000000E+00
 1 16 0.00000000E+00 0.00000000E+00 0.00000000E+00 0.00000000E+00-3.23904993E-06
 1 17 1.29561997E-05 1.29561997E-05 0.00000000E+00 0.00000000E+00 0.00000000E+00
 1 18-1.49362950E-05-1.15530381E-04 3.06044883E-04-5.73763983E-07-5.59529873E-06
 1 19 9.69134169E-06 0.00000000E+00 3.00806400E-05-5.21011968E-05 0.00000000E+00
 1 20-1.30388560E-04 2.25839611E-04 0.00000000E+00 2.66392020E-06-1.25271092E-05
 1 21 9.86318903E-06 1.51910294E-05 0.00000000E+00 0.00000000E+00-1.49132778E-05
 1 22 7.56936502E-05-6.07803724E-05-9.06069280E-05 0.00000000E+00 0.00000000E+00
 1 23-2.00286409E-05-1.64588335E-05 0.00000000E+00-7.36061409E-06 0.00000000E+00
 1 24 4.38698516E-05 0.00000000E+00-1.69986101E-05 2.94424564E-05 0.00000000E+00
 1 25-1.49362950E-05-1.15530381E-04 3.06044883E-04-5.73763983E-07-5.59529873E-06
 1 26-9.69134169E-06 0.00000000E+00 3.00806400E-05 5.21011968E-05 0.00000000E+00
 1 27-1.30388560E-04-2.25839611E-04 0.00000000E+00 2.66392020E-06-1.25271092E-05
 1 28 9.86318903E-06-1.51910294E-05 0.00000000E+00 0.00000000E+00-1.49132778E-05
 1 29 7.56936502E-05-6.07803724E-05 9.06069280E-05 0.00000000E+00 0.00000000E+00
 1 30-2.00286409E-05 1.64588335E-05 0.00000000E+00 7.36061409E-06 0.00000000E+00
 1 31 4.38698516E-05 0.00000000E+00-1.69986101E-05-2.94424564E-05 0.00000000E+00
 1 32-1.49362950E-05-1.15530381E-04 3.06044883E-04-5.73763983E-07 1.11905975E-05
 1 33 0.00000000E+00 0.00000000E+00-6.01612800E-05 0.00000000E+00 0.00000000E+00
 1 34 2.60777121E-04 0.00000000E+00 0.00000000E+00-2.01226239E-05 1.02594349E-05
 1 35 9.86318903E-06 0.00000000E+00 0.00000000E+00 0.00000000E+00 1.20997114E-04
 1 36-6.02167418E-05-6.07803724E-05 0.00000000E+00 0.00000000E+00 0.00000000E+00
 1 37-4.85361767E-05 0.00000000E+00 0.00000000E+00 0.00000000E+00 0.00000000E+00
 1 38 3.11208941E-05 0.00000000E+00 3.39972202E-05 0.00000000E+00 0.00000000E+00
 1 39-4.68807996E-07 8.40133494E-06 1.21622002E-05-3.52585944E-04-6.63217064E-08
 1 40 1.14872565E-07 0.00000000E+00 1.47050449E-05-2.54698849E-05 0.00000000E+00
 1 41-4.76477531E-05 8.25283293E-05 0.00000000E+00-8.70118558E-07 4.28422281E-06
 1 42-3.41410425E-06-5.15434137E-06 0.00000000E+00 0.00000000E+00-1.79304304E-06
 1 43 1.03075050E-05-8.51446201E-06-1.21005481E-05 0.00000000E+00 0.00000000E+00
 1 44-4.84699835E-06-3.94497786E-06 0.00000000E+00-1.76424773E-06 0.00000000E+00
 1 45 1.05772863E-05 0.00000000E+00-4.07435561E-06 7.05699093E-06 0.00000000E+00
 1 46-4.68807996E-07 8.40133494E-06 1.21622002E-05-3.52585944E-04-6.63217064E-08
 1 47-1.14872565E-07 0.00000000E+00 1.47050449E-05 2.54698849E-05 0.00000000E+00
 1 48-4.76477531E-05-8.25283293E-05 0.00000000E+00-8.70118558E-07 4.28422281E-06
 1 49-3.41410425E-06 5.15434137E-06 0.00000000E+00 0.00000000E+00-1.79304304E-06
 1 50 1.03075050E-05-8.51446201E-06 1.21005481E-05 0.00000000E+00 0.00000000E+00
 1 51-4.84699835E-06 3.94497786E-06 0.00000000E+00 1.76424773E-06 0.00000000E+00
 1 52 1.05772863E-05 0.00000000E+00-4.07435561E-06-7.05699093E-06 0.00000000E+00
 1 53-4.68807996E-07 8.40133494E-06 1.21622002E-05-3.52585944E-04 1.32643413E-07
 1 54 0.00000000E+00 0.00000000E+00-2.94100898E-05 0.00000000E+00 0.00000000E+00
 1 55 9.52955062E-05 0.00000000E+00 0.00000000E+00 6.86139349E-06-3.44728924E-06
 1 56-3.41410425E-06 0.00000000E+00 0.00000000E+00 0.00000000E+00 1.63577791E-05
 1 57-7.84331708E-06-8.51446201E-06 0.00000000E+00 0.00000000E+00 0.00000000E+00
 1 58-1.16799004E-05 0.00000000E+00 0.00000000E+00 0.00000000E+00 0.00000000E+00
 1 59 7.52151959E-06 0.00000000E+00 8.14871123E-06 0.00000000E+00 0.00000000E+00
 1 60-6.19357542E-06-6.02405590E-05 8.34914758E-05-3.53712335E-05 0.00000000E+00
 1 61 0.00000000E+00-5.68867387E-06 0.00000000E+00 0.00000000E+00 2.70610020E-05
 1 62 0.00000000E+00 0.00000000E+00-2.00376725E-04 9.40714234E-06 9.40714234E-06
 1 63-1.88142847E-05 0.00000000E+00 0.00000000E+00 0.00000000E+00-2.45501139E-05
 1 64-2.45501139E-05 4.91002278E-05 0.00000000E+00 0.00000000E+00 0.00000000E+00
 1 65-8.99169280E-09 0.00000000E+00 3.91870570E-05 0.00000000E+00-2.62874770E-05
 1 66 1.20636218E-08-2.62874770E-05 0.00000000E+00 0.00000000E+00 0.00000000E+00
 1 67-6.19357542E-06-6.02405590E-05 8.34914758E-05-3.53712335E-05 0.00000000E+00
 1 68 0.00000000E+00 5.68867387E-06 0.00000000E+00 0.00000000E+00-2.70610020E-05
 1 69 0.00000000E+00 0.00000000E+00 2.00376725E-04 9.40714234E-06 9.40714234E-06
 1 70-1.88142847E-05 0.00000000E+00 0.00000000E+00 0.00000000E+00-2.45501139E-05
 1 71-2.45501139E-05 4.91002278E-05 0.00000000E+00 0.00000000E+00 0.00000000E+00
 1 72-8.99169280E-09 0.00000000E+00-3.91870570E-05 0.00000000E+00 2.62874770E-05
 1 73 1.20636218E-08 2.62874770E-05 0.00000000E+00 0.00000000E+00 0.00000000E+00
 1 74-4.60951348E-07 7.03131353E-06 3.57323493E-05-2.12072492E-04 0.00000000E+00
 1 75 0.00000000E+00-1.87886479E-07 0.00000000E+00 0.00000000E+00 2.77260935E-05
 1 76 0.00000000E+00 0.00000000E+00-4.62224538E-05-2.78810580E-06-2.78810580E-06
 1 77 5.57621161E-06 0.00000000E+00 0.00000000E+00 0.00000000E+00-6.49093517E-06
 1 78-6.49093517E-06 1.29818703E-05 0.00000000E+00 0.00000000E+00 0.00000000E+00
 1 79-1.28267109E-08 0.00000000E+00 8.74857800E-06 0.00000000E+00-5.86872453E-06
 1 80 1.72088385E-08-5.86872453E-06 0.00000000E+00 0.00000000E+00 0.00000000E+00
 1 81-4.60951348E-07 7.03131353E-06 3.57323493E-05-2.12072492E-04 0.00000000E+00
 1 82 0.00000000E+00 1.87886479E-07 0.00000000E+00 0.00000000E+00-2.77260935E-05
 1 83 0.00000000E+00 0.00000000E+00 4.62224538E-05-2.78810580E-06-2.78810580E-06
 1 84 5.57621161E-06 0.00000000E+00 0.00000000E+00 0.00000000E+00-6.49093517E-06
 1 85-6.49093517E-06 1.29818703E-05 0.00000000E+00 0.00000000E+00 0.00000000E+00
 1 86-1.28267109E-08 0.00000000E+00-8.74857800E-06 0.00000000E+00 5.86872453E-06
 1 87 1.72088385E-08 5.86872453E-06 0.00000000E+00 0.00000000E+00 0.00000000E+00
 2  1 3.20525234E-01-1.04890117E+00-2.85854800E-02 1.48582650E-02 5.60415880E-05
 2  2 3.99985424E-03-3.19553728E-03 2.54275994E-04 0.00000000E+00 0.00000000E+00
 2  3 0.00000000E+00 0.00000000E+00 0.00000000E+00 0.00000000E+00 0.00000000E+00
 2  4 0.00000000E+00 0.00000000E+00 0.00000000E+00 0.00000000E+00 0.00000000E+00
 2  5 0.00000000E+00 0.00000000E+00 0.00000000E+00 0.00000000E+00 0.00000000E+00
 2  6 0.00000000E+00-1.15348996E-03-1.15348996E-03 2.30697992E-03 0.00000000E+00
 2  7 0.00000000E+00 0.00000000E+00 1.06624684E-03 1.06624684E-03-2.13249369E-03
 2  8 0.00000000E+00 0.00000000E+00 0.00000000E+00-5.63175783E-04-5.63175783E-04
 2  9 1.12635157E-03 0.00000000E+00 0.00000000E+00 0.00000000E+00 7.18418582E-04
 2 10 7.18418582E-04-1.43683716E-03 0.00000000E+00 0.00000000E+00 0.00000000E+00
 2 11 2.02843587E-05 0.00000000E+00 0.00000000E+00 0.00000000E+00 0.00000000E+00
 2 12-2.72143229E-05 0.00000000E+00 0.00000000E+00 0.00000000E+00 0.00000000E+00
 2 13 1.43690982E-04 0.00000000E+00 0.00000000E+00 0.00000000E+00 0.00000000E+00
 2 14-1.92781682E-04 0.00000000E+00 0.00000000E+00 0.00000000E+00 0.00000000E+00
 2 15 1.09472883E-04 1.09472883E-04 2.91927689E-04 0.00000000E+00 0.00000000E+00
 2 16 0.00000000E+00 0.00000000E+00 0.00000000E+00 0.00000000E+00 6.41007569E-05
 2 17-2.56403028E-04-2.56403028E-04 0.00000000E+00 0.00000000E+00 0.00000000E+00
 2 18 3.10271706E-05 2.75216441E-04-5.41777264E-04-2.73993490E-04 1.78009014E-05
 2 19-3.08320656E-05 0.00000000E+00-1.22928997E-04 2.12919268E-04 0.00000000E+00
 2 20 1.83770112E-04-3.18299171E-04 0.00000000E+00-8.59947445E-06 4.48019709E-05
 2 21-3.62024965E-05-5.34014454E-05 0.00000000E+00 0.00000000E+00 2.82258610E-05
 2 22-1.75549275E-04 1.47323414E-04 2.03775136E-04 0.00000000E+00 0.00000000E+00
 2 23 5.07016302E-05 5.39177573E-05 0.00000000E+00 2.41127541E-05 0.00000000E+00
 2 24-1.23709395E-04 0.00000000E+00 5.56860202E-05-9.64510163E-05 0.00000000E+00
 2 25 3.10271706E-05 2.75216441E-04-5.41777264E-04-2.73993490E-04 1.78009014E-05
 2 26 3.08320656E-05 0.00000000E+00-1.22928997E-04-2.12919268E-04 0.00000000E+00
 2 27 1.83770112E-04 3.18299171E-04 0.00000000E+00-8.59947445E-06 4.48019709E-05
 2 28-3.62024965E-05 5.34014454E-05 0.00000000E+00 0.00000000E+00 2.82258610E-05
 2 29-1.75549275E-04 1.47323414E-04-2.03775136E-04 0.00000000E+00 0.00000000E+00
 2 30 5.07016302E-05-5.39177573E-05 0.00000000E+00-2.41127541E-05 0.00000000E+00
 2 31-1.23709395E-04 0.00000000E+00 5.56860202E-05 9.64510163E-05 0.00000000E+00
 2 32 3.10271706E-05 2.75216441E-04-5.41777264E-04-2.73993490E-04-3.56018028E-05
 2 33 0.00000000E+00 0.00000000E+00 2.45857994E-04 0.00000000E+00 0.00000000E+00
 2 34-3.67540224E-04 0.00000000E+00 0.00000000E+00 7.15026936E-05-3.53001972E-05
 2 35-3.62024965E-05 0.00000000E+00 0.00000000E+00 0.00000000E+00-2.77436843E-04
 2 36 1.30113429E-04 1.47323414E-04 0.00000000E+00 0.00000000E+00 0.00000000E+00
 2 37 1.44089925E-04 0.00000000E+00 0.00000000E+00 0.00000000E+00 0.00000000E+00
 2 38-8.19448801E-05 0.00000000E+00-1.11372040E-04 0.00000000E+00 0.00000000E+00
 2 39 2.95933284E-06-1.73814959E-05-1.16906360E-04 6.60319102E-04 2.29838041E-06
 2 40-3.98091165E-06 0.00000000E+00-5.92502070E-05 1.02624369E-04 0.00000000E+00
 2 41 7.82735085E-05-1.35573694E-04 0.00000000E+00 2.48151221E-06-1.24749634E-05
 2 42 9.99345118E-06 1.49564756E-05 0.00000000E+00 0.00000000E+00 5.44639004E-06
 2 43-3.84224536E-05 3.29760636E-05 4.38688437E-05 0.00000000E+00 0.00000000E+00
 2 44 1.17752913E-05 1.20731312E-05 0.00000000E+00 5.39926843E-06 0.00000000E+00
 2 45-2.82672874E-05 0.00000000E+00 1.24690763E-05-2.15970737E-05 0.00000000E+00
 2 46 2.95933284E-06-1.73814959E-05-1.16906360E-04 6.60319102E-04 2.29838041E-06
 2 47 3.98091165E-06 0.00000000E+00-5.92502070E-05-1.02624369E-04 0.00000000E+00
 2 48 7.82735085E-05 1.35573694E-04 0.00000000E+00 2.48151221E-06-1.24749634E-05
 2 49 9.99345118E-06-1.49564756E-05 0.00000000E+00 0.00000000E+00 5.44639004E-06
 2 50-3.84224536E-05 3.29760636E-05-4.38688437E-05 0.00000000E+00 0.00000000E+00
 2 51 1.17752913E-05-1.20731312E-05 0.00000000E+00-5.39926843E-06 0.00000000E+00
 2 52-2.82672874E-05 0.00000000E+00 1.24690763E-05 2.15970737E-05 0.00000000E+00
 2 53 2.95933284E-06-1.73814959E-05-1.16906360E-04 6.60319102E-04-4.59676083E-06
 2 54 0.00000000E+00 0.00000000E+00 1.18500414E-04 0.00000000E+00 0.00000000E+00
 2 55-1.56547017E-04 0.00000000E+00 0.00000000E+00-1.99532012E-05 9.95975002E-06
 2 56 9.99345118E-06 0.00000000E+00 0.00000000E+00 0.00000000E+00-6.03568755E-05
 2 57 2.73808119E-05 3.29760636E-05 0.00000000E+00 0.00000000E+00 0.00000000E+00
 2 58 3.26865680E-05 0.00000000E+00 0.00000000E+00 0.00000000E+00 0.00000000E+00
 2 59-1.89154802E-05 0.00000000E+00-2.49381527E-05 0.00000000E+00 0.00000000E+00
 2 60 3.65560965E-05 3.97652067E-04-2.88388867E-04 3.39825970E-04 0.00000000E+00
 2 61 0.00000000E+00 8.48930731E-05 0.00000000E+00 0.00000000E+00-5.20830366E-04
 2 62 0.00000000E+00 0.00000000E+00 1.17605325E-03-6.79389034E-05-6.79389034E-05
 2 63 1.35877807E-04 0.00000000E+00 0.00000000E+00 0.00000000E+00 9.69235547E-05
 2 64 9.69235547E-05-1.93847109E-04 0.00000000E+00 0.00000000E+00 0.00000000E+00
 2 65 4.43188275E-07 0.00000000E+00-3.27930584E-04 0.00000000E+00 2.19982524E-04
 2 66-5.94599466E-07 2.19982524E-04 0.00000000E+00 0.00000000E+00 0.00000000E+00
 2 67 3.65560965E-05 3.97652067E-04-2.88388867E-04 3.39825970E-04 0.00000000E+00
 2 68 0.00000000E+00-8.48930731E-05 0.00000000E+00 0.00000000E+00 5.20830366E-04
 2 69 0.00000000E+00 0.00000000E+00-1.17605325E-03-6.79389034E-05-6.79389034E-05
 2 70 1.35877807E-04 0.00000000E+00 0.00000000E+00 0.00000000E+00 9.69235547E-05
 2 71 9.69235547E-05-1.93847109E-04 0.00000000E+00 0.00000000E+00 0.00000000E+00
 2 72 4.43188275E-07 0.00000000E+00 3.27930584E-04 0.00000000E+00-2.19982524E-04
 2 73-5.94599466E-07-2.19982524E-04 0.00000000E+00 0.00000000E+00 0.00000000E+00
 2 74 7.78870116E-06-3.36242419E-05-5.58515700E-04 1.15747161E-03 0.00000000E+00
 2 75 0.00000000E+00 1.70782331E-05 0.00000000E+00 0.00000000E+00-3.28863689E-04
 2 76 0.00000000E+00 0.00000000E+00 1.96591981E-04 2.32027906E-05 2.32027906E-05
 2 77-4.64055813E-05 0.00000000E+00 0.00000000E+00 0.00000000E+00 5.85247995E-05
 2 78 5.85247995E-05-1.17049599E-04 0.00000000E+00 0.00000000E+00 0.00000000E+00
 2 79 1.85937535E-07 0.00000000E+00-5.77170484E-05 0.00000000E+00 3.87177731E-05
 2 80-2.49461381E-07 3.87177731E-05 0.00000000E+00 0.00000000E+00 0.00000000E+00
 2 81 7.78870116E-06-3.36242419E-05-5.58515700E-04 1.15747161E-03 0.00000000E+00
 2 82 0.00000000E+00-1.70782331E-05 0.00000000E+00 0.00000000E+00 3.28863689E-04
 2 83 0.00000000E+00 0.00000000E+00-1.96591981E-04 2.32027906E-05 2.32027906E-05
 2 84-4.64055813E-05 0.00000000E+00 0.00000000E+00 0.00000000E+00 5.85247995E-05
 2 85 5.85247995E-05-1.17049599E-04 0.00000000E+00 0.00000000E+00 0.00000000E+00
 2 86 1.85937535E-07 0.00000000E+00 5.77170484E-05 0.00000000E+00-3.87177731E-05
 2 87-2.49461381E-07-3.87177731E-05 0.00000000E+00 0.00000000E+00 0.00000000E+00
 3  1 0.00000000E+00 0.00000000E+00 0.00000000E+00 0.00000000E+00 0.00000000E+00
 3  2 0.00000000E+00 0.00000000E+00 0.00000000E+00-9.97551258E-01 0.00000000E+00
 3  3 0.00000000E+00-5.97003645E-04 0.00000000E+00 0.00000000E+00-8.47100752E-03
 3  4 0.00000000E+00 0.00000000E+00 2.33273610E-03 0.00000000E+00 0.00000000E+00
 3  5-1.23055309E-03 0.00000000E+00 0.00000000E+00 4.34281101E-04 0.00000000E+00
 3  6 0.00000000E+00-2.07174468E-04 2.07174468E-04 0.00000000E+00 0.00000000E+00
 3  7 0.00000000E+00 0.00000000E+00 2.66771116E-04-2.66771116E-04 0.00000000E+00
 3  8 0.00000000E+00 0.00000000E+00 0.00000000E+00-2.13442583E-04 2.13442583E-04
 3  9 0.00000000E+00 0.00000000E+00 0.00000000E+00 0.00000000E+00 1.01360875E-04
 3 10-1.01360875E-04 0.00000000E+00 0.00000000E+00 0.00000000E+00 0.00000000E+00
 3 11 2.94595259E-04 0.00000000E+00 0.00000000E+00 0.00000000E+00 0.00000000E+00
 3 12 1.31747005E-04 0.00000000E+00-5.26988019E-04 0.00000000E+00 0.00000000E+00
 3 13 1.24314657E-05 0.00000000E+00 0.00000000E+00 0.00000000E+00 0.00000000E+00
 3 14 5.55952047E-06 0.00000000E+00-2.22380819E-05 0.00000000E+00 0.00000000E+00
 3 15-3.94408954E-06 4.41068923E-06 0.00000000E+00 0.00000000E+00 0.00000000E+00
 3 16 0.00000000E+00 0.00000000E+00 0.00000000E+00 0.00000000E+00-4.09819205E-07
 3 17 7.33808628E-06-7.33808628E-06 0.00000000E+00 0.00000000E+00 0.00000000E+00
 3 18 6.70888735E-06 5.78379141E-05-2.12058756E-04 7.75178081E-05-1.51135729E-06
 3 19-2.34342025E-06 0.00000000E+00 2.31646889E-05-4.44448186E-05 0.00000000E+00
 3 20 1.38501796E-05-1.12942227E-04 0.00000000E+00 4.24687574E-06-5.27156205E-06
 3 21 1.02468631E-06-8.08488415E-07 0.00000000E+00 0.00000000E+00 3.53405726E-05
 3 22-8.50081605E-05 4.96675879E-05 6.00628000E-05 0.00000000E+00 0.00000000E+00
 3 23-9.20326533E-06-1.22054354E-05 0.00000000E+00 5.53301412E-06 0.00000000E+00
 3 24 1.65262421E-05 0.00000000E+00-4.17876598E-06 1.08422958E-05 0.00000000E+00
 3 25 6.70888735E-06 5.78379141E-05-2.12058756E-04 7.75178081E-05-1.51135729E-06
 3 26 2.34342025E-06 0.00000000E+00 2.31646889E-05 4.44448186E-05 0.00000000E+00
 3 27 1.38501796E-05 1.12942227E-04 0.00000000E+00 4.24687574E-06-5.27156205E-06
 3 28 1.02468631E-06 8.08488415E-07 0.00000000E+00 0.00000000E+00 3.53405726E-05
 3 29-8.50081605E-05 4.96675879E-05-6.00628000E-05 0.00000000E+00 0.00000000E+00
 3 30-9.20326533E-06 1.22054354E-05 0.00000000E+00-5.53301412E-06 0.00000000E+00
 3 31 1.65262421E-05 0.00000000E+00-4.17876598E-06-1.08422958E-05 0.00000000E+00
 3 32-1.34177747E-05-1.15675828E-04 4.24117513E-04-1.55035616E-04 2.54756565E-06
 3 33 0.00000000E+00 0.00000000E+00 1.00145373E-04 0.00000000E+00 0.00000000E+00
 3 34 2.09471854E-04 0.00000000E+00 0.00000000E+00 4.57117259E-06-2.52179996E-06
 3 35-2.04937262E-06 0.00000000E+00 0.00000000E+00 0.00000000E+00 1.99936154E-04
 3 36-1.00600979E-04-9.93351757E-05 0.00000000E+00 0.00000000E+00 0.00000000E+00
 3 37 3.59125420E-05 0.00000000E+00 0.00000000E+00 0.00000000E+00 0.00000000E+00
 3 38-2.52235579E-05 0.00000000E+00-2.29581732E-05 0.00000000E+00 0.00000000E+00
 3 39-1.32094158E-06-4.62811468E-06 1.21154178E-04 1.10913524E-04-3.90537865E-06
 3 40 2.07214688E-06 0.00000000E+00 2.15349850E-05-2.54964412E-05 0.00000000E+00
 3 41 5.24458420E-05-2.36121929E-05 0.00000000E+00-2.41317018E-06 3.92689000E-06
 3 42-1.51371981E-06-7.67937672E-07 0.00000000E+00 0.00000000E+00 1.21011396E-05
 3 43-1.17230699E-05-3.78069755E-07-8.83196600E-06 0.00000000E+00 0.00000000E+00
 3 44 3.72450818E-07 2.25311667E-06 0.00000000E+00-2.38820902E-06 0.00000000E+00
 3 45-1.54301851E-07 0.00000000E+00-3.45393357E-07-6.34664198E-07 0.00000000E+00
 3 46-1.32094158E-06-4.62811468E-06 1.21154178E-04 1.10913524E-04-3.90537865E-06
 3 47-2.07214688E-06 0.00000000E+00 2.15349850E-05 2.54964412E-05 0.00000000E+00
 3 48 5.24458420E-05 2.36121929E-05 0.00000000E+00-2.41317018E-06 3.92689000E-06
 3 49-1.51371981E-06 7.67937672E-07 0.00000000E+00 0.00000000E+00 1.21011396E-05
 3 50-1.17230699E-05-3.78069755E-07 8.83196600E-06 0.00000000E+00 0.00000000E+00
 3 51 3.72450818E-07-2.25311667E-06 0.00000000E+00 2.38820902E-06 0.00000000E+00
 3 52-1.54301851E-07 0.00000000E+00-3.45393357E-07 6.34664198E-07 0.00000000E+00
 3 53 2.64188315E-06 9.25622937E-06-2.42308357E-04-2.21827049E-04-7.49444232E-06
 3 54 0.00000000E+00 0.00000000E+00 6.56961166E-05 0.00000000E+00 0.00000000E+00
 3 55 9.33433598E-05 0.00000000E+00 0.00000000E+00-5.83565641E-06 2.80821678E-06
 3 56 3.02743963E-06 0.00000000E+00 0.00000000E+00 0.00000000E+00-1.71391402E-06
 3 57 9.57774513E-07 7.56139509E-07 0.00000000E+00 0.00000000E+00 0.00000000E+00
 3 58-7.80170334E-07 0.00000000E+00 0.00000000E+00 0.00000000E+00 0.00000000E+00
 3 59 2.92831061E-07 0.00000000E+00 7.53877280E-07 0.00000000E+00 0.00000000E+00
 3 60 0.00000000E+00 0.00000000E+00 0.00000000E+00 0.00000000E+00-1.41854134E-06
 3 61 0.00000000E+00 0.00000000E+00 5.91277255E-06 0.00000000E+00 0.00000000E+00
 3 62-2.56346986E-05 0.00000000E+00 0.00000000E+00-5.40972696E-07 5.40972696E-07
 3 63 0.00000000E+00 0.00000000E+00 1.31195571E-06 0.00000000E+00 1.43764347E-06
 3 64-1.43764347E-06 0.00000000E+00 0.00000000E+00 2.04612433E-05 0.00000000E+00
 3 65-6.24404511E-06 0.00000000E+00 0.00000000E+00 0.00000000E+00-3.70645883E-07
 3 66-2.79242186E-06 3.70645883E-07 1.11696875E-05 0.00000000E+00 0.00000000E+00
 3 67 0.00000000E+00 0.00000000E+00 0.00000000E+00 0.00000000E+00-1.41854134E-06
 3 68 0.00000000E+00 0.00000000E+00 5.91277255E-06 0.00000000E+00 0.00000000E+00
 3 69-2.56346986E-05 0.00000000E+00 0.00000000E+00-5.40972696E-07 5.40972696E-07
 3 70 0.00000000E+00 0.00000000E+00-1.31195571E-06 0.00000000E+00 1.43764347E-06
 3 71-1.43764347E-06 0.00000000E+00 0.00000000E+00-2.04612433E-05 0.00000000E+00
 3 72-6.24404511E-06 0.00000000E+00 0.00000000E+00 0.00000000E+00 3.70645883E-07
 3 73-2.79242186E-06-3.70645883E-07 1.11696875E-05 0.00000000E+00 0.00000000E+00
 3 74 0.00000000E+00 0.00000000E+00 0.00000000E+00 0.00000000E+00 1.30255070E-06
 3 75 0.00000000E+00 0.00000000E+00-3.02145195E-06 0.00000000E+00 0.00000000E+00
 3 76 1.94333019E-05 0.00000000E+00 0.00000000E+00 3.72199046E-08-3.72199046E-08
 3 77 0.00000000E+00 0.00000000E+00-2.45706380E-06 0.00000000E+00 9.00433964E-08
 3 78-9.00433964E-08 0.00000000E+00 0.00000000E+00 4.62173276E-06 0.00000000E+00
 3 79 7.22385657E-07 0.00000000E+00 0.00000000E+00 0.00000000E+00-2.61929768E-08
 3 80 3.23060687E-07 2.61929768E-08-1.29224275E-06 0.00000000E+00 0.00000000E+00
 3 81 0.00000000E+00 0.00000000E+00 0.00000000E+00 0.00000000E+00 1.30255070E-06
 3 82 0.00000000E+00 0.00000000E+00-3.02145195E-06 0.00000000E+00 0.00000000E+00
 3 83 1.94333019E-05 0.00000000E+00 0.00000000E+00 3.72199046E-08-3.72199046E-08
 3 84 0.00000000E+00 0.00000000E+00 2.45706380E-06 0.00000000E+00 9.00433964E-08
 3 85-9.00433964E-08 0.00000000E+00 0.00000000E+00-4.62173276E-06 0.00000000E+00
 3 86 7.22385657E-07 0.00000000E+00 0.00000000E+00 0.00000000E+00 2.61929768E-08
 3 87 3.23060687E-07-2.61929768E-08-1.29224275E-06 0.00000000E+00 0.00000000E+00
 4  1 0.00000000E+00 0.00000000E+00 0.00000000E+00 0.00000000E+00 0.00000000E+00
 4  2 0.00000000E+00 0.00000000E+00 0.00000000E+00 0.00000000E+00-9.97551258E-01
 4  3 0.00000000E+00 0.00000000E+00-5.97003645E-04 0.00000000E+00 0.00000000E+00
 4  4-8.47100752E-03 0.00000000E+00 0.00000000E+00 2.33273610E-03 0.00000000E+00
 4  5 0.00000000E+00-1.23055309E-03 0.00000000E+00 0.00000000E+00 4.34281101E-04
 4  6 0.00000000E+00 0.00000000E+00 0.00000000E+00 0.00000000E+00 2.39224470E-04
 4  7 0.00000000E+00 0.00000000E+00 0.00000000E+00 0.00000000E+00 0.00000000E+00
 4  8-3.08040752E-04 0.00000000E+00 0.00000000E+00 0.00000000E+00 0.00000000E+00
 4  9 0.00000000E+00 2.46462265E-04 0.00000000E+00 0.00000000E+00 0.00000000E+00
 4 10 0.00000000E+00 0.00000000E+00-1.17041457E-04 0.00000000E+00 0.00000000E+00
 4 11 0.00000000E+00 2.94595259E-04 0.00000000E+00 1.31747005E-04 0.00000000E+00
 4 12 0.00000000E+00 0.00000000E+00 0.00000000E+00-5.26988019E-04 0.00000000E+00
 4 13 0.00000000E+00 1.24314657E-05 0.00000000E+00 5.55952047E-06 0.00000000E+00
 4 14 0.00000000E+00 0.00000000E+00 0.00000000E+00-2.22380819E-05 0.00000000E+00
 4 15 0.00000000E+00 0.00000000E+00 0.00000000E+00 3.51052577E-06 0.00000000E+00
 4 16 2.80509334E-06 0.00000000E+00 0.00000000E+00 0.00000000E+00 0.00000000E+00
 4 17 0.00000000E+00 0.00000000E+00 0.00000000E+00 0.00000000E+00-8.47329218E-06
 4 18-1.16201338E-05-1.00178206E-04 3.67296540E-04-1.34264782E-04-2.34342025E-06
 4 19 1.19459134E-06 0.00000000E+00-4.44448186E-05 7.44851448E-05 0.00000000E+00
 4 20-1.12942227E-04 1.44264630E-04 0.00000000E+00 1.58757588E-06 1.87232870E-07
 4 21-1.77480875E-06-4.56191062E-06 0.00000000E+00 0.00000000E+00-9.00251782E-06
 4 22 9.50293035E-05-8.60267857E-05-1.38837921E-04 0.00000000E+00 0.00000000E+00
 4 23 1.39255683E-05 5.78719756E-06 0.00000000E+00 8.93403049E-06 0.00000000E+00
 4 24-2.95254062E-05 0.00000000E+00 1.08422958E-05-1.66983708E-05 0.00000000E+00
 4 25 1.16201338E-05 1.00178206E-04-3.67296540E-04 1.34264782E-04 2.34342025E-06
 4 26 1.19459134E-06 0.00000000E+00 4.44448186E-05 7.44851448E-05 0.00000000E+00
 4 27 1.12942227E-04 1.44264630E-04 0.00000000E+00-1.58757588E-06-1.87232870E-07
 4 28 1.77480875E-06-4.56191062E-06 0.00000000E+00 0.00000000E+00 9.00251782E-06
 4 29-9.50293035E-05 8.60267857E-05-1.38837921E-04 0.00000000E+00 0.00000000E+00
 4 30-1.39255683E-05 5.78719756E-06 0.00000000E+00 8.93403049E-06 0.00000000E+00
 4 31 2.95254062E-05 0.00000000E+00-1.08422958E-05-1.66983708E-05 0.00000000E+00
 4 32 0.00000000E+00 0.00000000E+00 0.00000000E+00 0.00000000E+00 0.00000000E+00
 4 33-2.86433160E-06 0.00000000E+00 0.00000000E+00-2.49553907E-06 0.00000000E+00
 4 34 0.00000000E+00-5.13570453E-05 0.00000000E+00 0.00000000E+00 0.00000000E+00
 4 35 0.00000000E+00-5.96225363E-06 0.00000000E+00 0.00000000E+00 0.00000000E+00
 4 36 0.00000000E+00 0.00000000E+00-3.48060997E-05 0.00000000E+00 0.00000000E+00
 4 37 0.00000000E+00 5.93161624E-06 0.00000000E+00-1.00391347E-05 0.00000000E+00
 4 38 0.00000000E+00 0.00000000E+00 0.00000000E+00 2.08103642E-06 0.00000000E+00
 4 39 2.28793792E-06 8.01612978E-06-2.09845192E-04-1.92107860E-04 2.07214688E-06
 4 40-6.29808776E-06 0.00000000E+00-2.54964412E-05 5.09757394E-05 0.00000000E+00
 4 41-2.36121929E-05 7.97108539E-05 0.00000000E+00-6.45866281E-07-1.97597335E-06
 4 42 2.62183963E-06 4.54717349E-06 0.00000000E+00 0.00000000E+00 7.32128891E-06
 4 43-7.97612493E-06 6.54836024E-07-3.55663785E-06 0.00000000E+00 0.00000000E+00
 4 44 4.41100129E-08 8.79407305E-07 0.00000000E+00-1.56730244E-06 0.00000000E+00
 4 45 5.75484406E-07 0.00000000E+00-6.34664198E-07 3.87453734E-07 0.00000000E+00
 4 46-2.28793792E-06-8.01612978E-06 2.09845192E-04 1.92107860E-04-2.07214688E-06
 4 47-6.29808776E-06 0.00000000E+00 2.54964412E-05 5.09757394E-05 0.00000000E+00
 4 48 2.36121929E-05 7.97108539E-05 0.00000000E+00 6.45866281E-07 1.97597335E-06
 4 49-2.62183963E-06 4.54717349E-06 0.00000000E+00 0.00000000E+00-7.32128891E-06
 4 50 7.97612493E-06-6.54836024E-07-3.55663785E-06 0.00000000E+00 0.00000000E+00
 4 51-4.41100129E-08 8.79407305E-07 0.00000000E+00-1.56730244E-06 0.00000000E+00
 4 52-5.75484406E-07 0.00000000E+00 6.34664198E-07 3.87453734E-07 0.00000000E+00
 4 53 0.00000000E+00 0.00000000E+00 0.00000000E+00 0.00000000E+00 0.00000000E+00
 4 54-2.70902409E-06 0.00000000E+00 0.00000000E+00 6.81460778E-06 0.00000000E+00
 4 55 0.00000000E+00 3.88133361E-05 0.00000000E+00 0.00000000E+00 0.00000000E+00
 4 56 0.00000000E+00 3.21706643E-06 0.00000000E+00 0.00000000E+00 0.00000000E+00
 4 57 0.00000000E+00 0.00000000E+00-1.88540517E-05 0.00000000E+00 0.00000000E+00
 4 58 0.00000000E+00-1.79408331E-06 0.00000000E+00 3.11883224E-06 0.00000000E+00
 4 59 0.00000000E+00 0.00000000E+00 0.00000000E+00-7.11816903E-07 0.00000000E+00
 4 60 0.00000000E+00 0.00000000E+00 0.00000000E+00 0.00000000E+00 0.00000000E+00
 4 61-1.41854134E-06 0.00000000E+00 0.00000000E+00 5.91277255E-06 0.00000000E+00
 4 62 0.00000000E+00-2.56346986E-05 0.00000000E+00 0.00000000E+00 0.00000000E+00
 4 63 0.00000000E+00 6.24661463E-07 0.00000000E+00 1.31195571E-06 0.00000000E+00
 4 64 0.00000000E+00 0.00000000E+00-1.66004768E-06 0.00000000E+00 2.04612433E-05
 4 65 0.00000000E+00-6.24404511E-06 0.00000000E+00-2.79242186E-06 0.00000000E+00
 4 66 0.00000000E+00 0.00000000E+00 0.00000000E+00 1.11696875E-05 4.27985001E-07
 4 67 0.00000000E+00 0.00000000E+00 0.00000000E+00 0.00000000E+00 0.00000000E+00
 4 68-1.41854134E-06 0.00000000E+00 0.00000000E+00 5.91277255E-06 0.00000000E+00
 4 69 0.00000000E+00-2.56346986E-05 0.00000000E+00 0.00000000E+00 0.00000000E+00
 4 70 0.00000000E+00 6.24661463E-07 0.00000000E+00-1.31195571E-06 0.00000000E+00
 4 71 0.00000000E+00 0.00000000E+00-1.66004768E-06 0.00000000E+00-2.04612433E-05
 4 72 0.00000000E+00-6.24404511E-06 0.00000000E+00-2.79242186E-06 0.00000000E+00
 4 73 0.00000000E+00 0.00000000E+00 0.00000000E+00 1.11696875E-05-4.27985001E-07
 4 74 0.00000000E+00 0.00000000E+00 0.00000000E+00 0.00000000E+00 0.00000000E+00