 !#############################################################################
 !                   D_3h RHF GEOMETRY OPTIMIZATION AND HESSIAN TEMPLATE
 ! ---------------------------------------------------------------------------
 ! Replace the symmetry-correct coordinates, should only be two atoms.  
 ! The hydrogen or fluorine should have only one non-zero x,y,z coordinate.
 ! 
 ! Basis set?   gbasis=ccd for 2nd row, 
 !                         cct 3rd/4th,
 !                   SPKrTZP for heavy,
 !                   SPKrTZC beyond 4th
 ! 
 !#############################################################################
 $system kdiag=3 mwords=300 memddi=15000 parall=.t. $end
 $contrl runtyp=energy ispher=1 $end
 $contrl icut=9 itol=20 inttyp=rysquad qmttol=1.0d-05 nosym=1 $end
 $contrl scftyp=mcscf  mult=1 maxit=200 icharg=0 mplevl=2 $end
 $scf    npunch=2 conv=1.0d-06 dirscf=.t. $end
 $force  method=seminum $end
 $trans  dirtrf=.t. $end
 $statpt hssend=.t. $end
 $basis  gbasis=SPKrTZP $end
 !#############################################################################
 !
 !                       TURN ON THIS SECTION IF HEAVY ATOM
 !
 !#############################################################################
 !
 $contrl relwfn=LUT-IOTC $end
 $scf  diis=.t. soscf=.f. ethrsh=10.0 $end
 -guess iorder(25)=27,25,26 $end
 -gmcpt nsolut=100 $end
 !
 !#############################################################################
 !
 ! TURN ON THIS SECTION IF GMCPT, CHANGE runtyp=energy, scftyp=mcscf, change nosym=1
 !
 !#############################################################################
 $guess  guess=moread norb=369 purify=.t. norder=1 $end
 $mcscf  cistep=gmcci fullnr=.t. finci=mos
         acurcy=1.d-6 maxit=100 $end
 $mrmp   mrpt=gmcpt rdvecs=.f. $end
 $gmcpt  nmofzc=19 nmodoc=26 nmoact=3 nelact=4 stsym(1)=A
         reftyp=ormas nspace=1 mstart(1)=46 mine(1)=4 maxe(1)=4
         kstate(1)=1,1,1,1,1
         wstate(1)=1,1,1,1,1
         iwgt=0 thrwgt=-1.0 krot=.f. kszdoe=.f. knospn=.f.
         thrde=-1.0 edshft=0.02 $end
 !#############################################################################
 !
 !             TURN OFF THIS SECTION IF temp.inp, add C1
 !
 !    IF SOC, $transt $end, turn knospn=.t., restart from gmcpt states calc
 !
 !#############################################################################
 -data
 Iron pentacarbonyl optimization
 C1
 FE         26.0  -0.0000000000   0.0000000000   0.0000000000
 C           6.0  -0.8824444078   1.5284385491   0.0000000000
 C           6.0  -0.8824444078  -1.5284385491   0.0000000000
 C           6.0   1.7648888155   0.0000000000   0.0000000000
 O           8.0  -1.4586915946   2.5265279545   0.0000000000
 O           8.0  -1.4586915946  -2.5265279545   0.0000000000
 O           8.0   2.9173831893   0.0000000000   0.0000000000
 C           6.0   0.0000000000   0.0000000000  -1.6781093310
 C           6.0  -0.0000000000   0.0000000000   1.6781093310
 O           8.0  -0.0000000000   0.0000000000  -2.8433375200
 O           8.0  -0.0000000000   0.0000000000   2.8433375200
 $end
Semi-canonical MOs --- generated at Sun Mar 17 14:53:38 2024
 $VEC   
 1  1 9.97431344E-01 1.19352797E-02 3.43802735E-03-7.24391513E-03 2.26836637E-03
 1  2-3.51515803E-03 6.97375132E-04-7.91253258E-05-2.48839897E-08 0.00000000E+00
 1  3 0.00000000E+00-4.94467482E-08 0.00000000E+00 0.00000000E+00 1.63184190E-07
 1  4 4.98618863E-11 3.82146769E-11-5.68591136E-07-1.49406179E-10-7.36474367E-11
 1  5 1.35689263E-06 3.13250801E-10 5.23446411E-11-1.29017480E-06-1.25366986E-09
 1  6 9.95673002E-10 5.18205874E-06 3.29235539E-06-8.47441413E-06-1.83143015E-11
 1  7 0.00000000E+00 0.00000000E+00-1.87366582E-05-1.68435295E-05 3.55801877E-05
 1  8 4.62688826E-11 0.00000000E+00 0.00000000E+00 1.35946096E-04 1.33953810E-04
 1  9-2.69899907E-04-2.52346834E-10 0.00000000E+00 0.00000000E+00-4.98104079E-05
 1 10-4.83294496E-05 9.81398575E-05 3.22619370E-10 0.00000000E+00 0.00000000E+00
 1 11 1.67621777E-05 0.00000000E+00 0.00000000E+00 0.00000000E+00 0.00000000E+00
 1 12-2.25585655E-05 0.00000000E+00 6.97458453E-08 0.00000000E+00 0.00000000E+00
 1 13-1.13255738E-04 0.00000000E+00-3.04165238E-11 0.00000000E+00 2.04793559E-11
 1 14 1.52092325E-04 2.03286930E-11-1.43807404E-07-1.22109894E-11 0.00000000E+00
 1 15-1.77182672E-05-1.78124490E-05-4.74265462E-05 0.00000000E+00 0.00000000E+00
 1 16 0.00000000E+00 0.00000000E+00 0.00000000E+00 0.00000000E+00-1.04482273E-05
 1 17 4.15724921E-05 4.17379338E-05 0.00000000E+00 0.00000000E+00 0.00000000E+00
 1 18-3.03041371E-05-1.93797488E-04 5.34697266E-04 3.72344483E-05-1.43829988E-05
 1 19 2.48980445E-05 0.00000000E+00 1.13169968E-04-1.95994914E-04 0.00000000E+00
 1 20-1.05819202E-04 1.83311568E-04-4.12772176E-11 1.56182285E-06-5.20902109E-06
 1 21 3.64719824E-06 6.77873244E-06 0.00000000E+00 0.00000000E+00-2.60273101E-05
 1 22 1.42237635E-04-1.16210325E-04-1.68119711E-04 0.00000000E+00 0.00000000E+00
 1 23-3.74983522E-05-2.81772355E-05 0.00000000E+00-1.26738489E-05 0.00000000E+00
 1 24 7.94684379E-05 0.00000000E+00-2.91591192E-05 5.04775773E-05 0.00000000E+00
 1 25-3.03041738E-05-1.93797673E-04 5.34698239E-04 3.72331497E-05-1.43830064E-05
 1 26-2.48980568E-05 0.00000000E+00 1.13169944E-04 1.95994877E-04 0.00000000E+00
 1 27-1.05820276E-04-1.83313227E-04-4.11987009E-11 1.56182126E-06-5.20902597E-06
 1 28 3.64720471E-06-6.77873290E-06 0.00000000E+00 0.00000000E+00-2.60273206E-05
 1 29 1.42237772E-04-1.16210451E-04 1.68119924E-04 0.00000000E+00 0.00000000E+00
 1 30-3.74983676E-05 2.81772476E-05 0.00000000E+00 1.26738551E-05 0.00000000E+00
 1 31 7.94684749E-05 0.00000000E+00-2.91591355E-05-5.04775998E-05 0.00000000E+00
 1 32-3.02038992E-05-1.93309017E-04 5.33285267E-04 3.80722669E-05 2.86907128E-05
 1 33 0.00000000E+00 0.00000000E+00-2.25680197E-04 0.00000000E+00 0.00000000E+00
 1 34 2.10416541E-04 1.00763588E-10-4.47901588E-11-8.61487115E-06 4.95939277E-06
 1 35 3.65547838E-06 0.00000000E+00 0.00000000E+00 0.00000000E+00 2.25530999E-04
 1 36-1.09693670E-04-1.15837329E-04 3.02844940E-11 0.00000000E+00 0.00000000E+00
 1 37-8.61615870E-05 0.00000000E+00 0.00000000E+00 0.00000000E+00 0.00000000E+00
 1 38 5.74646984E-05 0.00000000E+00 5.81332010E-05 0.00000000E+00 0.00000000E+00
 1 39-3.76683569E-07 1.67304504E-05 5.70729485E-06-3.68511528E-04-1.38836609E-06
 1 40 2.44481264E-06 0.00000000E+00 2.95724549E-05-5.12782618E-05 0.00000000E+00
 1 41-5.34720579E-05 9.25527231E-05 2.42825144E-11-1.15773457E-06 5.85031106E-06
 1 42-4.69257648E-06-7.01099279E-06 0.00000000E+00 0.00000000E+00-4.24253119E-06
 1 43 2.00637985E-05-1.58212673E-05-2.42278732E-05 0.00000000E+00 0.00000000E+00
 1 44-6.67860365E-06-4.77161032E-06 0.00000000E+00-2.12072258E-06 0.00000000E+00
 1 45 1.38778141E-05 0.00000000E+00-4.91752701E-06 8.52250961E-06 0.00000000E+00
 1 46-3.76677950E-07 1.67304785E-05 5.70721122E-06-3.68513183E-04-1.38836377E-06
 1 47-2.44481161E-06 0.00000000E+00 2.95724503E-05 5.12782551E-05 0.00000000E+00
 1 48-5.34722536E-05-9.25531603E-05 2.48594929E-11-1.15774121E-06 5.85032067E-06
 1 49-4.69257945E-06 7.01099799E-06 0.00000000E+00 0.00000000E+00-4.24251443E-06
 1 50 2.00637746E-05-1.58212602E-05 2.42278670E-05 0.00000000E+00 0.00000000E+00
 1 51-6.67859567E-06 4.77161580E-06 0.00000000E+00 2.12072576E-06 0.00000000E+00
 1 52 1.38778126E-05 0.00000000E+00-4.91753630E-06-8.52252014E-06 0.00000000E+00
 1 53-3.80845883E-07 1.66784119E-05 5.80809279E-06-3.67204673E-04 2.79644203E-06
 1 54 0.00000000E+00 0.00000000E+00-5.90715806E-05 0.00000000E+00 0.00000000E+00
 1 55 1.06493792E-04-4.75729026E-11 2.48496857E-11 9.33418430E-06-4.65274792E-06
 1 56-4.68143639E-06 0.00000000E+00 0.00000000E+00 0.00000000E+00 3.20909512E-05
 1 57-1.63053673E-05-1.57855840E-05 1.52493327E-11 0.00000000E+00 0.00000000E+00
 1 58-1.49013564E-05 0.00000000E+00 0.00000000E+00 0.00000000E+00 0.00000000E+00
 1 59 1.01727976E-05 0.00000000E+00 9.81946996E-06 0.00000000E+00 0.00000000E+00
 1 60-4.37060706E-05-2.53610365E-04 7.66579193E-04-5.79401197E-07-8.79193323E-09
 1 61 0.00000000E+00-3.05675118E-05 2.03505362E-08 0.00000000E+00 3.08619943E-04
 1 62 6.56290647E-08 0.00000000E+00-2.01160354E-04-2.42942223E-06-2.42916572E-06
 1 63 4.85858796E-06 0.00000000E+00-5.14640821E-09 0.00000000E+00-1.74757409E-04
 1 64-1.74791815E-04 3.49549224E-04 1.82828594E-11-8.39275693E-09 0.00000000E+00
 1 65-1.66584525E-07 0.00000000E+00 9.07629635E-05 0.00000000E+00-6.08784798E-05
 1 66 2.18305865E-07-6.08928139E-05 5.19211503E-09 0.00000000E+00 0.00000000E+00
 1 67-4.37060558E-05-2.53610315E-04 7.66579378E-04-5.80150769E-07-8.79630452E-09
 1 68 0.00000000E+00 3.05675366E-05 2.03488930E-08 0.00000000E+00-3.08620164E-04
 1 69 6.56362047E-08 0.00000000E+00 2.01162107E-04-2.42940564E-06-2.42914977E-06
 1 70 4.85855541E-06 0.00000000E+00 5.14509838E-09 0.00000000E+00-1.74757346E-04
 1 71-1.74791753E-04 3.49549099E-04 1.83865757E-11 8.39067166E-09 0.00000000E+00
 1 72-1.66582422E-07 0.00000000E+00-9.07630510E-05 0.00000000E+00 6.08785387E-05
 1 73 2.18305130E-07 6.08928724E-05 5.19000389E-09 0.00000000E+00 0.00000000E+00
 1 74 5.93750059E-07 2.35134930E-05-8.59920150E-05-3.76051927E-04 6.35735851E-09
 1 75 0.00000000E+00-2.70001481E-06 6.41409921E-09 0.00000000E+00 4.88091343E-05
 1 76-2.15262871E-08 0.00000000E+00-1.22407938E-04-3.45933895E-06-3.46160605E-06
 1 77 6.92094500E-06 0.00000000E+00 1.97774741E-09 0.00000000E+00-2.06763580E-05
 1 78-2.06717888E-05 4.13481468E-05 0.00000000E+00-1.08643890E-08 0.00000000E+00
 1 79-1.32892093E-07 0.00000000E+00 1.61868480E-05 0.00000000E+00-1.08582986E-05
 1 80 1.81252879E-07-1.08586369E-05-2.96096092E-09 0.00000000E+00 0.00000000E+00
 1 81 5.93730150E-07 2.35133793E-05-8.59912641E-05-3.76053733E-04 6.35316578E-09
 1 82 0.00000000E+00 2.70004644E-06 6.40999174E-09 0.00000000E+00-4.88093477E-05
 1 83-2.15290805E-08 0.00000000E+00 1.22408410E-04-3.45935501E-06-3.46162167E-06
 1 84 6.92097668E-06 0.00000000E+00-1.97980961E-09 0.00000000E+00-2.06763451E-05
 1 85-2.06717750E-05 4.13481201E-05 0.00000000E+00 1.08660728E-08 0.00000000E+00
 1 86-1.32892976E-07 0.00000000E+00-1.61868520E-05 0.00000000E+00 1.08582999E-05
 1 87 1.81253700E-07 1.08586409E-05-2.96053887E-09 0.00000000E+00 0.00000000E+00
 2  1-3.20544656E-01 1.04830774E+00 2.73555632E-02-1.41953866E-02 4.95802050E-03
 2  2-1.12438079E-02 1.38444626E-03-2.44791405E-04-1.44566062E-05 1.02316025E-10
 2  3-1.44932546E-11-1.07321954E-06-0.00000000E+00-1.48218150E-11 2.61924086E-05
 2  4-7.30912170E-11 7.97168259E-11-8.31095502E-05 2.49855267E-10-2.40494051E-10
 2  5 1.98248229E-04-5.23250580E-10 5.81930421E-10-1.20476427E-04 2.68773843E-10
 2  6-3.09265484E-09 1.12869733E-04-4.04883599E-04 2.92013865E-04-0.00000000E+00
 2  7-0.00000000E+00-0.00000000E+00-1.24692095E-04 2.51398810E-04-1.26706715E-04
 2  8-2.36181947E-11-0.00000000E+00-0.00000000E+00 6.31447213E-04 4.11222683E-04
 2  9-1.04266990E-03 2.42707047E-10 3.43859292E-11-0.00000000E+00-1.12889458E-04
 2 10 2.97495718E-06 1.09914500E-04-1.54022145E-10-5.57766330E-11-0.00000000E+00
 2 11 6.95061272E-05-0.00000000E+00-0.00000000E+00-0.00000000E+00-0.00000000E+00
 2 12-9.53955295E-05-0.00000000E+00 2.14327342E-06-0.00000000E+00-0.00000000E+00
 2 13-4.38367761E-04-0.00000000E+00-0.00000000E+00-0.00000000E+00-0.00000000E+00
 2 14 6.06847331E-04-0.00000000E+00-1.87152591E-05 1.37728694E-11-0.00000000E+00
 2 15-1.02548381E-04-1.43636410E-04-3.36120115E-04-0.00000000E+00-0.00000000E+00
 2 16-0.00000000E+00-0.00000000E+00-0.00000000E+00-0.00000000E+00-7.89911004E-05
 2 17 2.59129651E-04 3.31305710E-04-0.00000000E+00-0.00000000E+00-0.00000000E+00
 2 18-1.04809106E-04-6.81661074E-04 1.66502325E-03 8.38443499E-05-7.19663103E-05
 2 19 1.19699933E-04-0.00000000E+00 5.23364010E-04-9.00310345E-04-0.00000000E+00
 2 20-3.38388893E-04 5.93148665E-04-4.84467796E-11 3.52928536E-06-1.84536151E-05
 2 21 1.49243297E-05 2.52250788E-05-0.00000000E+00-0.00000000E+00-8.85181337E-05
 2 22 4.60724663E-04-3.72206529E-04-5.35241906E-04-0.00000000E+00 1.62324227E-11
 2 23-1.68533943E-04-1.17221692E-04-0.00000000E+00-6.52103020E-05-0.00000000E+00
 2 24 3.57636615E-04-0.00000000E+00-1.31524603E-04 2.22479705E-04-0.00000000E+00
 2 25-1.04809069E-04-6.81660858E-04 1.66502268E-03 8.38442456E-05-7.19662974E-05
 2 26-1.19699915E-04-0.00000000E+00 5.23363955E-04 9.00310250E-04-0.00000000E+00
 2 27-3.38388825E-04-5.93148604E-04-4.96996201E-11 3.52927805E-06-1.84536013E-05
 2 28 1.49243233E-05-2.52250678E-05-0.00000000E+00-0.00000000E+00-8.85180984E-05
 2 29 4.60724454E-04-3.72206355E-04 5.35241596E-04-0.00000000E+00-1.56261262E-11
 2 30-1.68533911E-04 1.17221667E-04-0.00000000E+00 6.52103001E-05-0.00000000E+00
 2 31 3.57636556E-04-0.00000000E+00-1.31524587E-04-2.22479670E-04-0.00000000E+00
 2 32-8.91691910E-05-6.21580947E-04 1.49159457E-03 1.42026856E-04 1.29733792E-04
 2 33-0.00000000E+00-0.00000000E+00-9.04113600E-04-0.00000000E+00 1.36858002E-11
 2 34 5.95961146E-04-2.11621841E-11-4.45033654E-11-3.35723836E-05 1.75541714E-05
 2 35 1.60182121E-05-0.00000000E+00-0.00000000E+00-0.00000000E+00 6.35775908E-04
 2 36-3.08929680E-04-3.26846228E-04-2.63485517E-11-0.00000000E+00-0.00000000E+00
 2 37-3.47897500E-04-0.00000000E+00-0.00000000E+00-0.00000000E+00-0.00000000E+00
 2 38 2.36613789E-04-0.00000000E+00 2.30139686E-04-0.00000000E+00-0.00000000E+00
 2 39-3.62656875E-06 5.96762582E-05 2.46097817E-04-1.17814181E-03-4.78390767E-06
 2 40 1.83627763E-05-0.00000000E+00 1.54496847E-04-2.70488871E-04-0.00000000E+00
 2 41-1.55438948E-04 2.65335959E-04-0.00000000E+00-5.38616904E-06 2.62692923E-05
 2 42-2.08831233E-05-3.17337028E-05-0.00000000E+00-0.00000000E+00-2.16281156E-05
 2 43 8.89506622E-05-6.73225466E-05-9.93110693E-05-0.00000000E+00-0.00000000E+00
 2 44-2.44800133E-05-1.87636306E-05-0.00000000E+00-5.91889714E-06-0.00000000E+00
 2 45 5.02123357E-05-0.00000000E+00-1.73689514E-05 3.10929493E-05-0.00000000E+00
 2 46-3.62656696E-06 5.96762608E-05 2.46097935E-04-1.17814140E-03-4.78390493E-06
 2 47-1.83627823E-05-0.00000000E+00 1.54496839E-04 2.70488875E-04-0.00000000E+00
 2 48-1.55438892E-04-2.65335808E-04-0.00000000E+00-5.38616446E-06 2.62692854E-05
 2 49-2.08831210E-05 3.17336972E-05-0.00000000E+00-0.00000000E+00-2.16281288E-05
 2 50 8.89506650E-05-6.73225361E-05 9.93110494E-05-0.00000000E+00-0.00000000E+00
 2 51-2.44800138E-05 1.87636291E-05-0.00000000E+00 5.91889155E-06-0.00000000E+00
 2 52 5.02123298E-05-0.00000000E+00-1.73689449E-05-3.10929417E-05-0.00000000E+00
 2 53-4.34219657E-06 5.45608328E-05 2.33225618E-04-1.06772317E-03 1.30456395E-05
 2 54-0.00000000E+00-0.00000000E+00-2.82973799E-04-0.00000000E+00-0.00000000E+00
 2 55 2.76049928E-04 1.90762694E-11-0.00000000E+00 3.84685363E-05-1.93196803E-05
 2 56-1.91488560E-05-0.00000000E+00-0.00000000E+00-0.00000000E+00 1.22159247E-04
 2 57-6.24428663E-05-5.97163804E-05-1.25755156E-11-0.00000000E+00-0.00000000E+00
 2 58-5.04028171E-05-0.00000000E+00-0.00000000E+00-0.00000000E+00-0.00000000E+00
 2 59 3.50804082E-05-0.00000000E+00 3.25420670E-05-0.00000000E+00-0.00000000E+00
 2 60-1.50134022E-04-8.65740542E-04 2.48025778E-03 1.91957715E-04-1.03988312E-06
 2 61-0.00000000E+00-1.62036191E-04-4.40709248E-07-0.00000000E+00 1.54382490E-03
 2 62 7.90246815E-06-5.06962764E-11-3.51677031E-04-1.43066158E-05-1.40245768E-05
 2 63 2.83311926E-05-0.00000000E+00-5.80048318E-07-0.00000000E+00-5.66910433E-04
 2 64-5.73079571E-04 1.13999000E-03 1.28114512E-11-5.02832227E-06-1.71325475E-11
 2 65 8.87768672E-07-0.00000000E+00 4.42313173E-04-0.00000000E+00-2.93531936E-04
 2 66-6.56888474E-07-2.99893458E-04-5.34175618E-07-0.00000000E+00-0.00000000E+00
 2 67-1.50133968E-04-8.65740327E-04 2.48025532E-03 1.91961119E-04-1.03988691E-06
 2 68-0.00000000E+00 1.62036205E-04-4.40709010E-07-0.00000000E+00-1.54382537E-03
 2 69 7.90250193E-06-5.05251226E-11 3.51672342E-04-1.43065955E-05-1.40245527E-05
 2 70 2.83311482E-05-0.00000000E+00 5.80049525E-07-0.00000000E+00-5.66910080E-04
 2 71-5.73079211E-04 1.13998929E-03 1.29599508E-11 5.02830715E-06 1.50300706E-11
 2 72 8.87777167E-07-0.00000000E+00-4.42313221E-04-0.00000000E+00 2.93531967E-04
 2 73-6.56892285E-07 2.99893491E-04-5.34183181E-07-0.00000000E+00-0.00000000E+00
 2 74-2.05291356E-06 8.10902522E-05 3.01614369E-05-1.02007456E-03 2.12530030E-06
 2 75-0.00000000E+00-2.23666034E-05 2.47865112E-06-1.35979526E-11 3.30779443E-04
 2 76-2.37044435E-06-0.00000000E+00-2.99252072E-04-1.92097034E-05-1.91726569E-05
 2 77 3.83823603E-05-0.00000000E+00 4.31280773E-07-0.00000000E+00-9.00078735E-05
 2 78-9.11591756E-05 1.81167049E-04-0.00000000E+00-1.39398077E-06-0.00000000E+00
 2 79-4.91887702E-07-0.00000000E+00 5.84450767E-05-0.00000000E+00-3.85773682E-05
 2 80 6.61006261E-07-3.98349304E-05-1.07126522E-09-0.00000000E+00-0.00000000E+00
 2 81-2.05293119E-06 8.10901640E-05 3.01620675E-05-1.02007063E-03 2.12529788E-06
 2 82-0.00000000E+00 2.23666381E-05 2.47866114E-06-0.00000000E+00-3.30779672E-04
 2 83-2.37045409E-06-0.00000000E+00 2.99250762E-04-1.92096964E-05-1.91726527E-05
 2 84 3.83823490E-05-0.00000000E+00-4.31276764E-07-0.00000000E+00-9.00079482E-05
 2 85-9.11592515E-05 1.81167200E-04-0.00000000E+00 1.39397274E-06-0.00000000E+00
 2 86-4.91888372E-07-0.00000000E+00-5.84450870E-05-0.00000000E+00 3.85773695E-05
 2 87 6.61005237E-07 3.98349430E-05-1.06929618E-09-0.00000000E+00-0.00000000E+00
 3  1-0.00000000E+00 2.31765359E-11 2.75490960E-11 2.94754142E-11-3.45060561E-10
 3  2 2.47932500E-10 4.06367997E-09 1.12395782E-10-8.23393128E-09-1.45639210E-09
 3  3 9.97488391E-01-0.00000000E+00-0.00000000E+00 4.60119111E-04-8.14251680E-11
 3  4-0.00000000E+00 9.08275737E-03 6.47915823E-11-4.20999127E-11-2.91190827E-03
 3  5-1.20769788E-10 9.03564845E-11 2.10275813E-03-7.67052235E-11 2.12795709E-10
 3  6 7.88583328E-04-0.00000000E+00-0.00000000E+00-0.00000000E+00-0.00000000E+00
 3  7-5.94628114E-06-0.00000000E+00-0.00000000E+00-0.00000000E+00-0.00000000E+00
 3  8-0.00000000E+00-7.29008955E-08-0.00000000E+00 1.81312660E-11 1.72789676E-11
 3  9-3.54102174E-11 1.62170533E-11 1.91409653E-07 1.94442054E-11-4.31172777E-10
 3 10-3.14359518E-10 7.45532287E-10-7.16472784E-11 1.60301383E-05-3.80514308E-11
 3 11-0.00000000E+00-0.00000000E+00-6.28400265E-04-0.00000000E+00 3.19214044E-04
 3 12-0.00000000E+00 5.23873382E-04-0.00000000E+00-0.00000000E+00-0.00000000E+00
 3 13-0.00000000E+00-0.00000000E+00 1.83585984E-04-0.00000000E+00-1.22068964E-04
 3 14-0.00000000E+00-1.24237480E-04-0.00000000E+00-0.00000000E+00-0.00000000E+00
 3 15-0.00000000E+00-0.00000000E+00-0.00000000E+00-0.00000000E+00-2.40106221E-06
 3 16-0.00000000E+00-0.00000000E+00-3.74994468E-07-0.00000000E+00-0.00000000E+00
 3 17-0.00000000E+00-0.00000000E+00-0.00000000E+00 3.72446879E-06-0.00000000E+00
 3 18 2.75984875E-11 1.38404161E-10-6.16196915E-10-1.99604638E-10-0.00000000E+00
 3 19-0.00000000E+00 1.36217552E-06 5.77808224E-11-9.82509208E-11 8.28975229E-06
 3 20-1.11585702E-10 1.87211726E-10 5.48669688E-05-0.00000000E+00-0.00000000E+00
 3 21-0.00000000E+00-0.00000000E+00-1.64904254E-06 3.22263728E-06-0.00000000E+00
 3 22-1.11300873E-10 1.10187523E-10 1.30225569E-10-2.33067100E-05 3.99477738E-05
 3 23-0.00000000E+00-0.00000000E+00-1.45137602E-05-0.00000000E+00 1.93272058E-06
 3 24-0.00000000E+00 1.75395321E-05-0.00000000E+00 1.21119800E-11-1.78987351E-05
 3 25-1.44243819E-11 4.10758017E-11-1.49748178E-10 3.14999065E-11-0.00000000E+00
 3 26-0.00000000E+00 1.36217804E-06-0.00000000E+00 2.50764258E-11 8.28975298E-06
 3 27-0.00000000E+00-2.65863886E-11 5.48669619E-05-0.00000000E+00-0.00000000E+00
 3 28-0.00000000E+00-0.00000000E+00-1.64904209E-06-3.22263996E-06-0.00000000E+00
 3 29-1.39419080E-11 1.90949039E-11-0.00000000E+00-2.33067185E-05-3.99477825E-05
 3 30-0.00000000E+00-0.00000000E+00-1.45137620E-05-0.00000000E+00 1.93271846E-06
 3 31-0.00000000E+00 1.75395367E-05-0.00000000E+00-0.00000000E+00 1.78987388E-05
 3 32-0.00000000E+00 1.28572604E-11-1.44868871E-10-0.00000000E+00-0.00000000E+00
 3 33-0.00000000E+00 2.70123777E-06-1.23727015E-10-0.00000000E+00-1.45421239E-06
 3 34 9.38359844E-11-1.28047503E-11 5.24186054E-05-0.00000000E+00-0.00000000E+00
 3 35-0.00000000E+00-0.00000000E+00 3.47380261E-06-0.00000000E+00-3.05317366E-11
 3 36-0.00000000E+00 2.64574447E-11-0.00000000E+00 5.48315973E-05-0.00000000E+00
 3 37-1.33152957E-11-0.00000000E+00-1.00868329E-05-0.00000000E+00 1.93498636E-05
 3 38-0.00000000E+00-5.81695716E-06 1.76372590E-11-0.00000000E+00-0.00000000E+00
 3 39 3.02287992E-11-2.67996454E-11 2.69692976E-10 3.82475049E-11-0.00000000E+00
 3 40-0.00000000E+00 2.50417970E-06 4.00864875E-11-6.21905099E-11-2.44310837E-05
 3 41 4.28038846E-11-9.08259287E-11-4.17043463E-05-0.00000000E+00-0.00000000E+00
 3 42-0.00000000E+00-0.00000000E+00 9.35402354E-07-1.84647235E-06-0.00000000E+00
 3 43-0.00000000E+00-0.00000000E+00-0.00000000E+00-1.32927105E-05 2.39192775E-05
 3 44-0.00000000E+00-0.00000000E+00 3.16538154E-06-0.00000000E+00-1.00355956E-07
 3 45-0.00000000E+00-4.14644902E-06-0.00000000E+00-0.00000000E+00 3.41528070E-06
 3 46 1.27331752E-11-0.00000000E+00 1.55713262E-11 2.66697822E-11-0.00000000E+00
 3 47-0.00000000E+00 2.50418361E-06-0.00000000E+00-0.00000000E+00-2.44310928E-05
 3 48 1.06367744E-11 2.62868723E-11-4.17043489E-05-0.00000000E+00-0.00000000E+00
 3 49-0.00000000E+00-0.00000000E+00 9.35401076E-07 1.84647051E-06-0.00000000E+00
 3 50-0.00000000E+00-0.00000000E+00-0.00000000E+00-1.32927135E-05-2.39192823E-05
 3 51-0.00000000E+00-0.00000000E+00 3.16538146E-06-0.00000000E+00-1.00354342E-07
 3 52-0.00000000E+00-4.14645054E-06-0.00000000E+00-0.00000000E+00-3.41528410E-06
 3 53-0.00000000E+00-2.69051028E-11 1.32439875E-10-0.00000000E+00-0.00000000E+00
 3 54-0.00000000E+00 2.71406544E-06-4.48080416E-11-0.00000000E+00-2.08503176E-05
 3 55-4.04063995E-11-0.00000000E+00-4.23683026E-05-0.00000000E+00-0.00000000E+00
 3 56-0.00000000E+00-0.00000000E+00-2.69140252E-06-0.00000000E+00-0.00000000E+00
 3 57-0.00000000E+00-0.00000000E+00-0.00000000E+00 2.53316581E-05-0.00000000E+00
 3 58-0.00000000E+00-0.00000000E+00 2.18857861E-06-0.00000000E+00-3.95783591E-06
 3 59-0.00000000E+00 1.02154959E-06-0.00000000E+00-0.00000000E+00-0.00000000E+00
 3 60-9.24769346E-06-9.87274190E-05 3.69536152E-04 5.16283335E-04-2.85293509E-07
 3 61-0.00000000E+00-1.17916993E-05 2.52265324E-06-0.00000000E+00 2.51719122E-04
 3 62 2.89099336E-06-0.00000000E+00 7.49644533E-04 7.19016269E-07-1.51476189E-07
 3 63-5.67540080E-07-0.00000000E+00 1.04368579E-07-0.00000000E+00-9.64600417E-05
 3 64-9.67428459E-05 1.93202888E-04-0.00000000E+00 2.17948282E-06-0.00000000E+00
 3 65-1.25148900E-06-0.00000000E+00-2.47641568E-05-0.00000000E+00 1.87392393E-05
 3 66 6.43520180E-07 1.44853635E-05 1.03552648E-06-0.00000000E+00-0.00000000E+00
 3 67 9.24775957E-06 9.87277433E-05-3.69536929E-04-5.16285115E-04 2.85292334E-07
 3 68-0.00000000E+00-1.17917410E-05-2.52264930E-06-0.00000000E+00 2.51719947E-04
 3 69-2.89098403E-06-0.00000000E+00 7.49647317E-04-7.19043409E-07 1.51449376E-07
 3 70 5.67594034E-07-0.00000000E+00 1.04368062E-07-0.00000000E+00 9.64602592E-05
 3 71 9.67430614E-05-1.93203321E-04-0.00000000E+00 2.17947540E-06-0.00000000E+00
 3 72 1.25148888E-06-0.00000000E+00-2.47640946E-05-0.00000000E+00 1.87391960E-05
 3 73-6.43522465E-07 1.44853233E-05-1.03552403E-06-0.00000000E+00-0.00000000E+00
 3 74 1.95294629E-07 1.75235632E-07-1.47209665E-04 4.81986141E-04-1.59642570E-07
 3 75-0.00000000E+00-2.02112770E-06-1.65209700E-07-0.00000000E+00 1.45820164E-06
 3 76-6.27538579E-07-0.00000000E+00 1.16949595E-04 2.66234831E-06 3.00461064E-06
 3 77-5.66695895E-06-0.00000000E+00-1.86881051E-08-0.00000000E+00-1.61943829E-05
 3 78-1.75243921E-05 3.37187750E-05-0.00000000E+00-3.40717101E-07-0.00000000E+00
 3 79 4.13808684E-07-0.00000000E+00 1.87008349E-06-0.00000000E+00-7.54321741E-07
 3 80-2.96832132E-07-1.75465855E-06-2.58351362E-07-0.00000000E+00-0.00000000E+00
 3 81-1.95294524E-07-1.75253829E-07 1.47209892E-04-4.81988035E-04 1.59639893E-07
 3 82-0.00000000E+00-2.02114887E-06 1.65211300E-07-0.00000000E+00 1.45832594E-06
 3 83 6.27536127E-07-0.00000000E+00 1.16950061E-04-2.66234813E-06-3.00461149E-06
 3 84 5.66695962E-06-0.00000000E+00-1.86898318E-08-0.00000000E+00 1.61944587E-05
 3 85 1.75244686E-05-3.37189273E-05-0.00000000E+00-3.40715419E-07-0.00000000E+00
 3 86-4.13809613E-07-0.00000000E+00 1.87012017E-06-0.00000000E+00-7.54346556E-07
 3 87 2.96833821E-07-1.75468294E-06 2.58350927E-07-0.00000000E+00-0.00000000E+00
 4  1-4.64321721E-06 6.43269167E-07-3.00956887E-05 1.42922487E-05 9.09648757E-05
 4  2-9.26532162E-05-8.34903560E-05-8.58655591E-06 9.97419037E-01 1.24852532E-08
 4  3 8.23431249E-09 5.61777043E-04-0.00000000E+00-0.00000000E+00 9.10610025E-03
 4  4 1.05730493E-10 7.83255997E-11-2.64422066E-03-0.00000000E+00-6.94693189E-11
 4  5 1.43159532E-03-3.11163148E-11 1.75547017E-10 7.69251590E-04 1.00278675E-10
 4  6-1.11831909E-09 9.09278509E-05-9.94328277E-05 8.50496624E-06-0.00000000E+00
 4  7-0.00000000E+00-0.00000000E+00 7.32157474E-05-5.03700230E-05-2.28457346E-05
 4  8-0.00000000E+00-0.00000000E+00-0.00000000E+00-3.04210745E-04 2.68906706E-04
 4  9 3.53040421E-05 1.76117071E-11-0.00000000E+00-0.00000000E+00 5.92843491E-04
 4 10-6.91804029E-04 9.89605401E-05-2.30392188E-11-0.00000000E+00-1.18412958E-11
 4 11-1.42688776E-04-0.00000000E+00-0.00000000E+00-0.00000000E+00-0.00000000E+00
 4 12-1.49331931E-04-0.00000000E+00 3.40769012E-04-0.00000000E+00-0.00000000E+00
 4 13 1.31002407E-05-0.00000000E+00-0.00000000E+00-0.00000000E+00-0.00000000E+00
 4 14 7.86739362E-05-0.00000000E+00-9.62497535E-05-0.00000000E+00-0.00000000E+00
 4 15 1.68649163E-06 2.29041701E-07-5.88509933E-07-0.00000000E+00-0.00000000E+00
 4 16-0.00000000E+00-0.00000000E+00-0.00000000E+00-0.00000000E+00-2.19932229E-06
 4 17-7.63202862E-07 1.79698303E-06-0.00000000E+00-0.00000000E+00-0.00000000E+00
 4 18-1.14739966E-05-5.75069558E-05 2.98652029E-04 2.95025909E-04-3.61423004E-07
 4 19-2.41881336E-06-1.34232421E-11 6.00631825E-05-8.07953802E-05-0.00000000E+00
 4 20 2.56583353E-04-3.46849834E-04-0.00000000E+00-3.00227153E-06 2.64359042E-06
 4 21 3.58681111E-07 3.14460774E-06-0.00000000E+00-0.00000000E+00-7.88226898E-06
 4 22 6.08233852E-05-5.29411162E-05-8.71804220E-05-0.00000000E+00-1.66981882E-11
 4 23 1.45235827E-05 1.03839526E-05-0.00000000E+00 1.06434974E-06 2.05844112E-11
 4 24-2.70622472E-05-1.95323360E-11 7.57681626E-06-1.49958841E-05-0.00000000E+00
 4 25-1.14739912E-05-5.75069420E-05 2.98651892E-04 2.95026031E-04-3.61423244E-07
 4 26 2.41881466E-06-1.19346372E-11 6.00631825E-05 8.07953806E-05-0.00000000E+00
 4 27 2.56583470E-04 3.46850017E-04-0.00000000E+00-3.00227067E-06 2.64358916E-06
 4 28 3.58681505E-07-3.14460812E-06-0.00000000E+00-0.00000000E+00-7.88226688E-06
 4 29 6.08233682E-05-5.29411013E-05 8.71804003E-05-0.00000000E+00-0.00000000E+00
 4 30 1.45235841E-05-1.03839534E-05-0.00000000E+00-1.06435201E-06 2.04404543E-11
 4 31-2.70622515E-05-2.08813643E-11 7.57681863E-06 1.49958874E-05-0.00000000E+00
 4 32 1.33020410E-05 5.48654997E-05-4.56670856E-04-4.60169470E-04 2.34685698E-05
 4 33-0.00000000E+00-0.00000000E+00 1.80898430E-07-0.00000000E+00-0.00000000E+00
 4 34 7.15526389E-04-0.00000000E+00-1.90737180E-11 6.13961977E-06-3.46313115E-06
 4 35-2.67648863E-06-0.00000000E+00-0.00000000E+00-0.00000000E+00-1.54527873E-04
 4 36 8.36089240E-05 7.09189486E-05-0.00000000E+00 1.73760997E-11-0.00000000E+00
 4 37-1.00435055E-04-0.00000000E+00-0.00000000E+00-0.00000000E+00-0.00000000E+00
 4 38 7.10683652E-05-0.00000000E+00 6.36794007E-05-0.00000000E+00-0.00000000E+00
 4 39 1.36154890E-06-1.63413391E-07-1.26201078E-04 2.69140636E-04 4.47188170E-06
 4 40 5.53450033E-06-0.00000000E+00 1.54769207E-06 2.33415774E-05-0.00000000E+00
 4 41 1.63366965E-05-4.99359933E-05-0.00000000E+00 1.50895205E-06-4.15833831E-06
 4 42 2.64938627E-06 3.06416619E-06-0.00000000E+00-0.00000000E+00-5.66173387E-06
 4 43 1.38747713E-05-8.21303746E-06-7.54727814E-06-0.00000000E+00-0.00000000E+00
 4 44-2.09142040E-08-2.07914580E-06-0.00000000E+00 1.50745390E-06-0.00000000E+00
 4 45 3.20573841E-07-1.34750567E-11-2.92514492E-07 1.28201291E-06-0.00000000E+00
 4 46 1.36160457E-06-1.63413566E-07-1.26201075E-04 2.69140839E-04 4.47188014E-06
 4 47-5.53450351E-06-0.00000000E+00 1.54769051E-06-2.33415809E-05-0.00000000E+00
 4 48 1.63367214E-05 4.99360460E-05-0.00000000E+00 1.50895286E-06-4.15834004E-06
 4 49 2.64938718E-06-3.06416674E-06-0.00000000E+00-0.00000000E+00-5.66173474E-06
 4 50 1.38747737E-05-8.21303895E-06 7.54727990E-06-0.00000000E+00-0.00000000E+00
 4 51-2.09138478E-08 2.07914514E-06-0.00000000E+00-1.50745360E-06-0.00000000E+00
 4 52 3.20573050E-07-1.36265637E-11-2.92514179E-07-1.28201232E-06-0.00000000E+00
 4 53-3.76509855E-06 5.53399963E-06 3.05752644E-04-4.86416368E-04-1.47514041E-06
 4 54-0.00000000E+00-0.00000000E+00-8.97960697E-05-0.00000000E+00-0.00000000E+00
 4 55 8.38280069E-05-0.00000000E+00-0.00000000E+00 1.44575665E-05-6.59694176E-06
 4 56-7.86062473E-06-0.00000000E+00 1.42367549E-11-0.00000000E+00-9.11891744E-06
 4 57 1.74594459E-06 7.37297285E-06-0.00000000E+00-0.00000000E+00-0.00000000E+00
 4 58-2.35426776E-06-0.00000000E+00-0.00000000E+00-0.00000000E+00-1.27551694E-11
 4 59 3.23228747E-06-0.00000000E+00-7.37058238E-08-0.00000000E+00-0.00000000E+00
 4 60 1.83970713E-06 1.34422992E-05-7.26546726E-05-3.67983199E-05-1.09274199E-06
 4 61-0.00000000E+00 2.54404453E-06 1.22267059E-05-0.00000000E+00-3.63241874E-05
 4 62 6.37395894E-06-0.00000000E+00-2.89947302E-05-1.19983065E-06 1.97874555E-06
 4 63-7.78910816E-07-0.00000000E+00 2.90314599E-07-0.00000000E+00 4.84750175E-06
 4 64 1.76898214E-05-2.25373209E-05-0.00000000E+00-4.09151346E-05-0.00000000E+00
 4 65-2.62300742E-05-0.00000000E+00-3.48415082E-06-0.00000000E+00-6.12731419E-06
 4 66-1.17174366E-05 1.08017956E-05 4.69087740E-05-0.00000000E+00-0.00000000E+00
 4 67 1.83973396E-06 1.34423662E-05-7.26553217E-05-3.67971312E-05-1.09272513E-06
 4 68-0.00000000E+00-2.54404285E-06 1.22266984E-05-0.00000000E+00 3.63241295E-05
 4 69 6.37394373E-06-0.00000000E+00 2.89930913E-05-1.19981814E-06 1.97873653E-06
 4 70-7.78914294E-07-0.00000000E+00-2.90321682E-07-0.00000000E+00 4.84759414E-06