 !#############################################################################
 !                   D_3h RHF GEOMETRY OPTIMIZATION AND HESSIAN TEMPLATE
 ! ---------------------------------------------------------------------------
 ! Replace the symmetry-correct coordinates, should only be two atoms.  
 ! The hydrogen or fluorine should have only one non-zero x,y,z coordinate.
 ! 
 ! Basis set?   gbasis=ccd for 2nd row, 
 !                         cct 3rd/4th,
 !                   SPKrTZP for heavy,
 !                   SPKrTZC beyond 4th
 ! 
 !#############################################################################
 $system kdiag=3 mwords=500 memddi=3000 parall=.t. $end
 $contrl runtyp=energy ispher=1 $end
 $contrl icut=9 itol=20 inttyp=rysquad qmttol=1.0d-05 nosym=1 $end
 $contrl scftyp=mcscf  mult=3 maxit=200 icharg=0 mplevl=2 $end
 $scf    npunch=2 conv=1.0d-06 dirscf=.t. $end
 $force  method=seminum $end
 $trans  dirtrf=.t. $end
 $statpt hssend=.t. $end
 $basis  gbasis=SPKrTZP $end
 !#############################################################################
 !
 !                       TURN ON THIS SECTION IF HEAVY ATOM
 !
 !#############################################################################
 !
 $contrl relwfn=LUT-IOTC $end
 $scf  diis=.t. soscf=.f. ethrsh=10.0 $end
 -guess iorder(43)=44 iorder(44)=43 $end
 $gmcpt nsolut=100 $end
 !
 !#############################################################################
 !
 ! TURN ON THIS SECTION IF GMCPT, CHANGE runtyp=energy, scftyp=mcscf, change nosym=1
 !
 !#############################################################################
 $guess  guess=moread norb=369 purify=.t. norder=1 $end
 $mcscf  cistep=gmcci fullnr=.t. finci=mos
         acurcy=1.d-6 maxit=100 $end
 $mrmp   mrpt=gmcpt rdvecs=.f. $end
 $gmcpt  nmofzc=19 nmodoc=24 nmoact=8 nelact=10 stsym(1)=A
         reftyp=ormas nspace=1 mstart(1)=44 mine(1)=10 maxe(1)=10
         kstate(1)=1,1,1,1,1,1,1,1,1,1,1,1,1,1,1,1,1
         wstate(1)=3,1,1,1,1,1,1,1,1,1,1,1,1,3,3,3,3
         iwgt=0 thrwgt=-1.0 krot=.f. kszdoe=.f. knospn=.t.
         thrde=-1.0 edshft=0.02 maxbas=8000 $end
 $transt $end
 !#############################################################################
 !
 !             TURN OFF THIS SECTION IF temp.inp, add C1
 !
 !    IF SOC, $transt $end, turn knospn=.t., restart from gmcpt states calc
 !
 !#############################################################################
 $data
 Iron pentacarbonyl optimization
 C1
 FE         26.0  -0.0000000000   0.0000000000   0.0000000000
 C           6.0  -0.8824444078   1.5284385491   0.0000000000
 C           6.0  -0.8824444078  -1.5284385491   0.0000000000
 C           6.0   1.7648888155   0.0000000000   0.0000000000
 O           8.0  -1.4586915946   2.5265279545   0.0000000000
 O           8.0  -1.4586915946  -2.5265279545   0.0000000000
 O           8.0   2.9173831893   0.0000000000   0.0000000000
 C           6.0   0.0000000000   0.0000000000  -1.6781093310
 C           6.0  -0.0000000000   0.0000000000   1.6781093310
 O           8.0  -0.0000000000   0.0000000000  -2.8433375200
 O           8.0  -0.0000000000   0.0000000000   2.8433375200
 $end
Semi-canonical MOs --- generated at Thu Apr  4 01:08:49 2024
 $VEC   
 1  1 9.97431865E-01 1.19193662E-02 3.41508325E-03-7.21951165E-03 2.28446494E-03
 1  2-3.52970911E-03 7.06195893E-04-7.92568595E-05-1.89843527E-11 0.00000000E+00
 1  3 0.00000000E+00 0.00000000E+00 0.00000000E+00 0.00000000E+00 7.42255178E-11
 1  4 3.08575878E-11 2.51864607E-11-1.80940864E-10-1.35216606E-10-4.48829188E-11
 1  5 4.20923503E-10 2.72964835E-10 0.00000000E+00-3.43757442E-10-1.13726980E-09
 1  6 1.00572796E-09 4.34129449E-06 4.34125587E-06-8.68255035E-06-5.49898815E-11
 1  7 0.00000000E+00 0.00000000E+00-1.94409818E-05-1.94408467E-05 3.88818284E-05
 1  8 3.36869372E-11 0.00000000E+00 0.00000000E+00 1.37505571E-04 1.37505008E-04
 1  9-2.75010578E-04-2.01973135E-10 0.00000000E+00 0.00000000E+00-5.08300675E-05
 1 10-5.08287260E-05 1.01658793E-04 2.30125926E-10 0.00000000E+00 0.00000000E+00
 1 11 1.60475891E-05 0.00000000E+00 0.00000000E+00 0.00000000E+00 0.00000000E+00
 1 12-2.15300945E-05 0.00000000E+00 0.00000000E+00 0.00000000E+00 0.00000000E+00
 1 13-1.12881626E-04 0.00000000E+00-1.88791569E-11 0.00000000E+00 0.00000000E+00
 1 14 1.51446652E-04 2.05767368E-11-5.84521965E-11 0.00000000E+00 0.00000000E+00
 1 15-1.77301809E-05-1.77301830E-05-4.72805387E-05 0.00000000E+00 0.00000000E+00
 1 16 0.00000000E+00 0.00000000E+00 0.00000000E+00 0.00000000E+00-1.03817785E-05
 1 17 4.15269712E-05 4.15269748E-05 0.00000000E+00 0.00000000E+00 0.00000000E+00
 1 18-2.98419359E-05-1.94241117E-04 5.33285629E-04 3.70753074E-05-1.45987960E-05
 1 19 2.52858839E-05 0.00000000E+00 1.12061017E-04-1.94095463E-04 1.52297276E-11
 1 20-1.06045528E-04 1.83676332E-04-2.88376310E-11 1.56380690E-06-5.22878464E-06
 1 21 3.66497774E-06 6.79256589E-06 0.00000000E+00 0.00000000E+00-2.59465992E-05
 1 22 1.42143920E-04-1.16197321E-04-1.68089902E-04 0.00000000E+00 0.00000000E+00
 1 23-3.73092632E-05-2.80895932E-05 0.00000000E+00-1.25620318E-05 0.00000000E+00
 1 24 7.90664501E-05 0.00000000E+00-2.90108208E-05 5.02481757E-05 0.00000000E+00
 1 25-2.98419854E-05-1.94241126E-04 5.33286669E-04 3.70736856E-05-1.45987341E-05
 1 26-2.52858689E-05 0.00000000E+00 1.12061104E-04 1.94095480E-04 1.75200372E-11
 1 27-1.06046868E-04-1.83677749E-04-2.76400835E-11 1.56379984E-06-5.22878544E-06
 1 28 3.66498560E-06-6.79256607E-06 0.00000000E+00 0.00000000E+00-2.59466165E-05
 1 29 1.42144050E-04-1.16197433E-04 1.68090084E-04 0.00000000E+00 0.00000000E+00
 1 30-3.73092766E-05 2.80895978E-05 0.00000000E+00 1.25620431E-05 0.00000000E+00
 1 31 7.90664810E-05 0.00000000E+00-2.90108337E-05-5.02481932E-05 0.00000000E+00
 1 32-2.98419235E-05-1.94240584E-04 5.33286322E-04 3.70747265E-05 2.91975678E-05
 1 33-1.69581210E-11 0.00000000E+00-2.24121833E-04-2.59865530E-11 1.78406875E-11
 1 34 2.12092150E-04 8.00513157E-11-2.69834482E-11-8.62490848E-06 4.95999115E-06
 1 35 3.66491733E-06 0.00000000E+00 0.00000000E+00 0.00000000E+00 2.26188567E-04
 1 36-1.09991286E-04-1.16197281E-04 2.06185121E-11 0.00000000E+00 0.00000000E+00
 1 37-8.59617807E-05 0.00000000E+00 0.00000000E+00 0.00000000E+00 0.00000000E+00
 1 38 5.73082953E-05 0.00000000E+00 5.80215358E-05 0.00000000E+00 0.00000000E+00
 1 39-4.28668232E-07 1.67871614E-05 5.01192509E-06-3.68555490E-04-1.26209842E-06
 1 40 2.18601488E-06 0.00000000E+00 2.94973725E-05-5.10910117E-05 0.00000000E+00
 1 41-5.33822879E-05 9.24604481E-05 2.11128273E-11-1.15302641E-06 5.82923682E-06
 1 42-4.67621041E-06-6.98236051E-06 0.00000000E+00 0.00000000E+00-4.20606022E-06
 1 43 1.99744975E-05-1.57684373E-05-2.41804202E-05 0.00000000E+00 0.00000000E+00
 1 44-6.67190169E-06-4.75887889E-06 0.00000000E+00-2.12822726E-06 0.00000000E+00
 1 45 1.38661923E-05 0.00000000E+00-4.91489686E-06 8.51293328E-06 0.00000000E+00
 1 46-4.28669522E-07 1.67872179E-05 5.01185468E-06-3.68556916E-04-1.26204930E-06
 1 47-2.18603969E-06 0.00000000E+00 2.94974257E-05 5.10909792E-05 0.00000000E+00
 1 48-5.33824340E-05-9.24608486E-05 2.46329588E-11-1.15302650E-06 5.82923973E-06
 1 49-4.67621323E-06 6.98236754E-06 0.00000000E+00 0.00000000E+00-4.20604855E-06
 1 50 1.99744824E-05-1.57684339E-05 2.41804187E-05 0.00000000E+00 0.00000000E+00
 1 51-6.67189652E-06 4.75888319E-06 0.00000000E+00 2.12823126E-06 0.00000000E+00
 1 52 1.38661934E-05 0.00000000E+00-4.91490486E-06-8.51294305E-06 0.00000000E+00
 1 53-4.28645509E-07 1.67870771E-05 5.01171909E-06-3.68556264E-04 2.52411028E-06
 1 54 0.00000000E+00 0.00000000E+00-5.89944959E-05 0.00000000E+00 0.00000000E+00
 1 55 1.06764603E-04-2.18803034E-11 2.36415898E-11 9.32044668E-06-4.64424038E-06
 1 56-4.67620630E-06 0.00000000E+00 0.00000000E+00 0.00000000E+00 3.20644479E-05
 1 57-1.62961097E-05-1.57683382E-05 0.00000000E+00 0.00000000E+00 0.00000000E+00
 1 58-1.49144044E-05 0.00000000E+00 0.00000000E+00 0.00000000E+00 0.00000000E+00
 1 59 1.01799499E-05 0.00000000E+00 9.82982331E-06 0.00000000E+00 0.00000000E+00
 1 60-4.45701155E-05-2.54004626E-04 7.73044248E-04-1.17411865E-06 0.00000000E+00
 1 61-1.79611822E-11-2.97271900E-05 0.00000000E+00-2.07026765E-11 3.10580977E-04
 1 62 4.62586830E-11 0.00000000E+00-2.03687302E-04-2.48474542E-06-2.48468907E-06
 1 63 4.96943449E-06 0.00000000E+00-4.20903467E-11 0.00000000E+00-1.76003866E-04
 1 64-1.76003918E-04 3.52007784E-04 0.00000000E+00 7.87400771E-11 0.00000000E+00
 1 65-1.58534907E-07 0.00000000E+00 9.10621979E-05 0.00000000E+00-6.10863556E-05
 1 66 2.12641734E-07-6.10864032E-05 5.65513081E-11 0.00000000E+00 0.00000000E+00
 1 67-4.45701200E-05-2.54004511E-04 7.73044665E-04-1.17524180E-06 0.00000000E+00
 1 68-1.78358146E-11 2.97271914E-05 0.00000000E+00-2.01186129E-11-3.10581218E-04
 1 69 4.97139556E-11 0.00000000E+00 2.03689034E-04-2.48473117E-06-2.48467593E-06
 1 70 4.96940711E-06 0.00000000E+00 4.15214314E-11 0.00000000E+00-1.76003833E-04
 1 71-1.76003883E-04 3.52007716E-04 0.00000000E+00-8.15478803E-11 0.00000000E+00
 1 72-1.58532248E-07 0.00000000E+00-9.10622820E-05 0.00000000E+00 6.10864123E-05
 1 73 2.12640249E-07 6.10864593E-05 5.44441282E-11 0.00000000E+00 0.00000000E+00
 1 74 6.88446359E-07 2.35154367E-05-8.74274541E-05-3.79669773E-04 0.00000000E+00
 1 75 0.00000000E+00-3.03695737E-06 0.00000000E+00 0.00000000E+00 4.82677661E-05
 1 76 3.56635512E-11 0.00000000E+00-1.23895228E-04-3.45125189E-06-3.45124253E-06
 1 77 6.90249442E-06 0.00000000E+00 0.00000000E+00 0.00000000E+00-2.07177759E-05
 1 78-2.07177479E-05 4.14355238E-05 0.00000000E+00 2.29755484E-11 0.00000000E+00
 1 79-1.35593208E-07 0.00000000E+00 1.62318079E-05 0.00000000E+00-1.08886311E-05
 1 80 1.81918101E-07-1.08886243E-05 0.00000000E+00 0.00000000E+00 0.00000000E+00
 1 81 6.88416489E-07 2.35153857E-05-8.74267380E-05-3.79671565E-04 0.00000000E+00
 1 82 0.00000000E+00 3.03699135E-06 0.00000000E+00 0.00000000E+00-4.82679613E-05
 1 83 3.69925395E-11 0.00000000E+00 1.23895721E-04-3.45126878E-06-3.45125812E-06
 1 84 6.90252690E-06 0.00000000E+00 0.00000000E+00 0.00000000E+00-2.07177636E-05
 1 85-2.07177355E-05 4.14354991E-05 0.00000000E+00-2.34519625E-11 0.00000000E+00
 1 86-1.35593301E-07 0.00000000E+00-1.62318127E-05 0.00000000E+00 1.08886337E-05
 1 87 1.81918037E-07 1.08886283E-05 0.00000000E+00 0.00000000E+00 0.00000000E+00
 2  1-3.20540293E-01 1.04839026E+00 2.75034449E-02-1.42812298E-02 4.45343314E-03
 2  2-1.08724593E-02 2.48087215E-03-2.52102594E-04-1.38256541E-10 1.54664061E-11
 2  3 1.54150037E-11 0.00000000E+00 0.00000000E+00 0.00000000E+00-2.25245000E-10
 2  4-7.27812013E-11 2.51685900E-11 5.68988359E-10 2.16045589E-10-8.30776303E-11
 2  5-7.26345932E-10-4.54765554E-10 1.79398428E-10-3.27508008E-09 1.03896266E-10
 2  6-1.45916998E-09-1.75620309E-04-1.75620155E-04 3.51240464E-04 5.82441698E-11
 2  7 0.00000000E+00 0.00000000E+00-2.44410466E-04-2.44410522E-04 4.88820987E-04
 2  8-1.84308918E-11 0.00000000E+00 0.00000000E+00 7.08278769E-04 7.08278329E-04
 2  9-1.41655710E-03 1.60830106E-10 1.95298523E-11 0.00000000E+00-5.81797576E-04
 2 10-5.81795658E-04 1.16359323E-03 0.00000000E+00-3.18212942E-11 0.00000000E+00
 2 11 7.05472596E-05 0.00000000E+00 0.00000000E+00 0.00000000E+00 0.00000000E+00
 2 12-9.46490845E-05 0.00000000E+00 0.00000000E+00 0.00000000E+00 0.00000000E+00
 2 13-4.13003490E-04 0.00000000E+00 0.00000000E+00 0.00000000E+00 0.00000000E+00
 2 14 5.54102250E-04 0.00000000E+00 8.09673254E-11 0.00000000E+00 0.00000000E+00
 2 15-7.08197836E-05-7.08197310E-05-1.88852563E-04 0.00000000E+00 0.00000000E+00
 2 16 0.00000000E+00 0.00000000E+00 0.00000000E+00 0.00000000E+00-4.14676956E-05
 2 17 1.65871153E-04 1.65871061E-04 0.00000000E+00 0.00000000E+00 0.00000000E+00
 2 18 4.45726917E-05-8.43060116E-04 1.12414571E-03 6.24168840E-05-1.57570342E-04
 2 19 2.72919971E-04 0.00000000E+00 3.07757622E-04-5.33051678E-04 0.00000000E+00
 2 20-2.98550241E-04 5.17104405E-04-3.58957764E-11 2.53677757E-06-1.99721507E-05
 2 21 1.74353731E-05 2.25089465E-05 0.00000000E+00 0.00000000E+00-7.39073138E-05
 2 22 4.18143075E-04-3.44235761E-04-4.92050074E-04 0.00000000E+00 0.00000000E+00
 2 23-1.37518911E-04-1.02513260E-04 0.00000000E+00-4.58453296E-05 0.00000000E+00
 2 24 2.90376204E-04 0.00000000E+00-1.05875225E-04 1.83381300E-04 0.00000000E+00
 2 25 4.45727228E-05-8.43059887E-04 1.12414518E-03 6.24167411E-05-1.57570332E-04
 2 26-2.72919950E-04 0.00000000E+00 3.07757556E-04 5.33051577E-04 0.00000000E+00
 2 27-2.98550251E-04-5.17104456E-04-3.67431810E-11 2.53677199E-06-1.99721369E-05
 2 28 1.74353649E-05-2.25089350E-05 0.00000000E+00 0.00000000E+00-7.39072816E-05
 2 29 4.18142894E-04-3.44235612E-04 4.92049820E-04 0.00000000E+00 0.00000000E+00
 2 30-1.37518889E-04 1.02513241E-04 0.00000000E+00 4.58453286E-05 0.00000000E+00
 2 31 2.90376160E-04 0.00000000E+00-1.05875210E-04-1.83381274E-04 0.00000000E+00
 2 32 4.45727302E-05-8.43059897E-04 1.12414148E-03 6.24201259E-05 3.15140886E-04
 2 33 0.00000000E+00 0.00000000E+00-6.15517588E-04 0.00000000E+00 0.00000000E+00
 2 34 5.97094803E-04 0.00000000E+00-3.38598740E-11-3.12269149E-05 1.37914235E-05
 2 35 1.74354913E-05 0.00000000E+00 0.00000000E+00 0.00000000E+00 6.64167171E-04
 2 36-3.19931901E-04-3.44235270E-04 0.00000000E+00 0.00000000E+00 0.00000000E+00
 2 37-3.15077408E-04 0.00000000E+00 0.00000000E+00 0.00000000E+00 0.00000000E+00
 2 38 2.10970027E-04 0.00000000E+00 2.11750675E-04 0.00000000E+00 0.00000000E+00
 2 39-2.31197128E-05 8.50526214E-05 1.94288833E-04-9.79883392E-04 3.37496971E-05
 2 40-5.84559985E-05 0.00000000E+00 1.72328487E-04-2.98481447E-04 0.00000000E+00
 2 41-9.65251940E-05 1.67186441E-04 0.00000000E+00-4.59437315E-06 2.47268255E-05
 2 42-2.01324523E-05-2.93212537E-05 0.00000000E+00 0.00000000E+00-1.76996479E-05
 2 43 7.85185545E-05-6.08189066E-05-9.62181751E-05 0.00000000E+00 0.00000000E+00
 2 44-2.35461296E-05-1.62252156E-05 0.00000000E+00-7.25610374E-06 0.00000000E+00
 2 45 4.83477627E-05 0.00000000E+00-1.67573149E-05 2.90245148E-05 0.00000000E+00
 2 46-2.31197094E-05 8.50526108E-05 1.94288953E-04-9.79883179E-04 3.37497075E-05
 2 47 5.84559965E-05 0.00000000E+00 1.72328490E-04 2.98481448E-04 0.00000000E+00
 2 48-9.65251551E-05-1.67186353E-04 0.00000000E+00-4.59436942E-06 2.47268217E-05
 2 49-2.01324523E-05 2.93212531E-05 0.00000000E+00 0.00000000E+00-1.76996552E-05
 2 50 7.85185470E-05-6.08188918E-05 9.62181482E-05 0.00000000E+00 0.00000000E+00
 2 51-2.35461225E-05 1.62252117E-05 0.00000000E+00 7.25609532E-06 0.00000000E+00
 2 52 4.83477535E-05 0.00000000E+00-1.67573152E-05-2.90245012E-05 0.00000000E+00
 2 53-2.31198088E-05 8.50525055E-05 1.94290601E-04-9.79877432E-04-6.74990012E-05
 2 54 0.00000000E+00 0.00000000E+00-3.44657720E-04 0.00000000E+00 0.00000000E+00
 2 55 1.93048284E-04 0.00000000E+00 0.00000000E+00 3.93874766E-05-1.92550325E-05
 2 56-2.01324441E-05 0.00000000E+00 0.00000000E+00 0.00000000E+00 1.26628062E-04
 2 57-6.58089361E-05-6.08191261E-05 0.00000000E+00 0.00000000E+00 0.00000000E+00
 2 58-5.16489957E-05 0.00000000E+00 0.00000000E+00 0.00000000E+00 0.00000000E+00
 2 59 3.57797708E-05 0.00000000E+00 3.35146283E-05 0.00000000E+00 0.00000000E+00
 2 60-3.51415337E-04-5.39227424E-04 2.88488718E-03 4.30001007E-05-1.40438974E-11
 2 61 0.00000000E+00 1.53908311E-04 1.54899213E-11 0.00000000E+00 1.59542332E-03
 2 62-8.13803259E-11-2.38304257E-11-7.53805990E-04-1.33825823E-05-1.33826323E-05
 2 63 2.67652146E-05 0.00000000E+00-2.41040725E-11 0.00000000E+00-6.04339700E-04
 2 64-6.04339546E-04 1.20867925E-03 0.00000000E+00 3.24148536E-11 0.00000000E+00
 2 65 1.66433958E-06 0.00000000E+00 4.23740825E-04 0.00000000E+00-2.84253968E-04
 2 66-2.23296219E-06-2.84254006E-04 1.89078772E-11 0.00000000E+00 0.00000000E+00
 2 67-3.51415308E-04-5.39227421E-04 2.88488645E-03 4.30017643E-05-1.44791398E-11
 2 68 0.00000000E+00-1.53908322E-04 1.48877708E-11 0.00000000E+00-1.59542350E-03
 2 69-6.23204906E-11-2.57314936E-11 7.53803900E-04-1.33825751E-05-1.33826244E-05
 2 70 2.67651994E-05 0.00000000E+00 2.49195745E-11 0.00000000E+00-6.04339595E-04
 2 71-6.04339439E-04 1.20867903E-03 0.00000000E+00-4.40055807E-11 0.00000000E+00
 2 72 1.66433474E-06 0.00000000E+00-4.23740834E-04 0.00000000E+00 2.84253974E-04
 2 73-2.23295173E-06 2.84254012E-04 1.49540404E-11 0.00000000E+00 0.00000000E+00
 2 74 2.69035445E-05 4.35527228E-05-1.61330236E-04-1.41413319E-03 2.93863940E-11
 2 75 0.00000000E+00-1.32144296E-04-7.54373752E-11-1.18479411E-11 1.14143096E-04
 2 76 4.00218113E-11 0.00000000E+00-5.16404758E-04-1.36084733E-05-1.36084583E-05
 2 77 2.72169316E-05 0.00000000E+00 0.00000000E+00 0.00000000E+00-7.33158555E-05
 2 78-7.33158727E-05 1.46631728E-04 0.00000000E+00 0.00000000E+00 0.00000000E+00
 2 79-7.39459659E-07 0.00000000E+00 5.22917672E-05 0.00000000E+00-3.50783611E-05
 2 80 9.92105448E-07-3.50784066E-05-1.78102513E-11 0.00000000E+00 0.00000000E+00
 2 81 2.69035595E-05 4.35526328E-05-1.61329995E-04-1.41413167E-03 1.14090789E-11
 2 82 0.00000000E+00 1.32144328E-04-6.71588732E-11-1.40595204E-11-1.14143188E-04
 2 83 3.63234509E-11 0.00000000E+00 5.16404269E-04-1.36084715E-05-1.36084559E-05
 2 84 2.72169274E-05 0.00000000E+00 0.00000000E+00 0.00000000E+00-7.33158863E-05
 2 85-7.33159036E-05 1.46631790E-04 0.00000000E+00 0.00000000E+00 0.00000000E+00
 2 86-7.39462137E-07 0.00000000E+00-5.22917934E-05 0.00000000E+00 3.50783783E-05
 2 87 9.92108335E-07 3.50784245E-05-1.73261010E-11 0.00000000E+00 0.00000000E+00
 3  1 0.00000000E+00 0.00000000E+00 0.00000000E+00 1.24091567E-11-1.38995339E-10
 3  2 4.29680693E-10-2.06553660E-09-1.15266423E-11 2.34555143E-02 9.97149903E-01
 3  3 6.02726750E-09 1.31749789E-05 5.60100099E-04 0.00000000E+00 2.12938349E-04
 3  4 9.05251938E-03 7.09272300E-11-5.87115607E-05-2.49597472E-03-8.05185740E-11
 3  5 2.59395126E-05 1.10275592E-03 2.10754917E-10 1.80324734E-05 7.66598485E-04
 3  6-9.25624435E-11-1.01065749E-06 1.01071012E-06-5.29080502E-11 4.96152907E-05
 3  7 0.00000000E+00 0.00000000E+00 3.72383957E-06-3.72378370E-06-5.61499616E-11
 3  8-1.82798378E-04 0.00000000E+00 0.00000000E+00-1.00900278E-05 1.00898191E-05
 3  9 2.08705434E-10 4.95308286E-04 0.00000000E+00 0.00000000E+00 1.36613436E-05
 3 10-1.36609726E-05-3.70916737E-10-6.70620200E-04 0.00000000E+00 0.00000000E+00
 3 11 2.94302759E-07 1.25110181E-05 0.00000000E+00 5.59509303E-06 0.00000000E+00
 3 12 1.31595403E-07 0.00000000E+00-5.26443988E-07-2.23803852E-05 0.00000000E+00
 3 13-1.28068920E-06-5.44448180E-05 4.01821002E-11-2.43484321E-05-2.63428388E-11
 3 14-5.72733125E-07-2.75669284E-11 2.29095798E-06 9.73938206E-05 0.00000000E+00
 3 15-2.83008947E-07-9.03822664E-08 0.00000000E+00-8.90433210E-06 0.00000000E+00
 3 16 1.50945667E-05 0.00000000E+00 0.00000000E+00 0.00000000E+00 3.27957298E-07
 3 17 1.69181916E-07-1.69189990E-07 0.00000000E+00 0.00000000E+00-8.30507119E-06
 3 18-6.24445004E-06-2.27191451E-05-1.30109484E-04-3.90559644E-04-1.27936815E-05
 3 19 2.37304196E-05 0.00000000E+00 6.90954591E-05-1.06835669E-04 1.95700354E-11
 3 20-2.96129592E-04 5.53885191E-04 0.00000000E+00-9.99327449E-07 5.29337860E-06
 3 21-4.29405115E-06-4.13138891E-06 0.00000000E+00 0.00000000E+00 1.02487845E-05
 3 22-2.70128108E-05 1.67640263E-05 2.63924820E-05-1.40127239E-11 3.24386292E-11
 3 23-4.64098806E-05-3.60146292E-05 0.00000000E+00-1.91668435E-05 0.00000000E+00
 3 24 1.02025057E-04 0.00000000E+00-3.97596682E-05 6.74855389E-05 0.00000000E+00
 3 25 6.41635187E-06 2.33446786E-05 1.33692101E-04 4.01314309E-04 1.32179672E-05
 3 26 2.43423117E-05 0.00000000E+00-7.04096358E-05-1.10117162E-04 1.65655962E-11
 3 27 3.06161780E-04 5.68053552E-04 0.00000000E+00 9.41073535E-07-5.35335259E-06
 3 28 4.41227905E-06-4.30233942E-06 0.00000000E+00 0.00000000E+00-1.00996569E-05
 3 29 2.73253252E-05-1.72256683E-05 2.74068597E-05 0.00000000E+00 0.00000000E+00
 3 30 4.77231257E-05-3.72078001E-05 0.00000000E+00-1.94608093E-05 0.00000000E+00
 3 31-1.04818525E-04 0.00000000E+00 4.07912329E-05 6.93803115E-05 0.00000000E+00
 3 32-1.71977849E-07-6.25614858E-07-3.58203047E-06-1.07542586E-05 7.42008677E-07
 3 33 1.50949512E-06 0.00000000E+00-3.49900205E-06 1.23385520E-05 1.79527922E-11
 3 34 1.72853002E-05 3.93696438E-05 0.00000000E+00 1.87772314E-07-6.95333895E-08
 3 35-1.18238925E-07 2.07663760E-06 0.00000000E+00 0.00000000E+00-1.03227788E-06
 3 36 5.70713701E-07 4.61564174E-07-1.04436486E-05 2.76326092E-11 0.00000000E+00
 3 37-3.09551988E-06-2.54652329E-06 0.00000000E+00 4.74273852E-06 0.00000000E+00
 3 38 1.99642767E-06 0.00000000E+00 2.15664806E-06-1.32621901E-06 0.00000000E+00
 3 39-2.48374097E-06 9.47506828E-06 2.47693792E-04-4.97251840E-04-2.61223761E-07
 3 40 3.92717149E-06 0.00000000E+00 5.02608791E-05-7.99649171E-05 0.00000000E+00
 3 41-5.63736036E-05 8.69619268E-05-2.73484193E-11-1.67901045E-06 8.85372697E-06
 3 42-7.17471652E-06-1.14539898E-05 0.00000000E+00 0.00000000E+00-2.71570055E-06
 3 43 5.92127391E-06-3.20557337E-06-1.06391584E-06-1.32585159E-11 0.00000000E+00
 3 44-2.12020409E-06-3.01719594E-06 0.00000000E+00 6.23240507E-08 0.00000000E+00
 3 45 4.85089109E-06 0.00000000E+00-2.00633880E-06 3.98566909E-06 0.00000000E+00
 3 46 2.55214193E-06-9.73589634E-06-2.54514501E-04 5.10944807E-04 4.27659691E-07
 3 47 3.94336993E-06 0.00000000E+00-5.13200168E-05-8.23544410E-05 0.00000000E+00
 3 48 5.74365614E-05 8.96391484E-05-3.06001389E-11 1.76181203E-06-9.13408546E-06
 3 49 7.37227343E-06-1.17450222E-05 0.00000000E+00 0.00000000E+00 2.48993538E-06
 3 50-5.78377001E-06 3.29383463E-06-1.29354346E-06 0.00000000E+00-1.61764393E-11
 3 51 2.16548564E-06-3.00921529E-06 0.00000000E+00-4.46208061E-08 0.00000000E+00
 3 52-4.99028277E-06 0.00000000E+00 2.08497891E-06 4.08190678E-06 0.00000000E+00
 3 53-6.83885136E-08 2.60887035E-07 6.82027454E-06-1.36922691E-05 9.72598003E-08
 3 54 3.33843212E-06 0.00000000E+00-2.59880792E-06 6.81183012E-06 0.00000000E+00
 3 55 2.84998122E-06-1.02622113E-05-3.45822841E-11 4.07842175E-07-2.10275211E-07
 3 56-1.97566964E-07-8.85186371E-07 0.00000000E+00 0.00000000E+00 1.25537927E-07
 3 57-3.72891996E-08-8.82487546E-08 7.27665218E-06 1.58346566E-11 0.00000000E+00
 3 58-1.57837378E-07 1.24223219E-06 0.00000000E+00-2.15724663E-06 0.00000000E+00
 3 59 8.90919149E-08 0.00000000E+00 1.22669149E-07 4.90617257E-07 0.00000000E+00
 3 60 2.16007243E-11-2.30227806E-11-4.11536241E-11 9.64061716E-11 2.71924320E-07
 3 61 1.15597514E-05-5.61673903E-11-6.37251676E-07-2.70871173E-05 2.02570702E-10
 3 62-1.87848311E-07-7.98607329E-06 2.93793596E-10-4.25940640E-08 4.26133267E-08
 3 63-1.90939759E-11 2.09023523E-06 7.40786804E-08 3.14963361E-06-1.46737890E-07
 3 64 1.46750794E-07-1.28628826E-11 7.20419540E-06-1.66840189E-06-7.09279938E-05
 3 65-2.51833608E-09-1.06141609E-07 0.00000000E+00-4.74630552E-08-1.23471267E-07
 3 66-1.10580050E-09 1.23464241E-07 4.48450290E-09 1.89866966E-07 6.06145798E-06
 3 67 1.92633906E-11-2.08058367E-11 2.25997361E-10 2.25162590E-10 2.71919375E-07
 3 68 1.15597522E-05 3.19155383E-11-6.37240914E-07-2.70871196E-05 2.36811814E-10
 3 69-1.87828535E-07-7.98608081E-06-3.00077125E-10-4.26014344E-08 4.25795488E-08
 3 70 2.19951174E-11 2.09023259E-06-7.40944304E-08-3.14963481E-06-1.46739475E-07
 3 71 1.46709235E-07 3.03032588E-11 7.20419249E-06 1.66840150E-06 7.09279956E-05
 3 72-2.52153990E-09-1.06161129E-07 1.03297655E-10-4.74654549E-08 1.23405376E-07
 3 73-1.12044469E-09-1.23544094E-07 4.50344546E-09 1.89895555E-07-6.06146171E-06
 3 74 5.08470287E-11-3.02992116E-11 1.37424196E-10 2.85481686E-10 8.07595226E-08
 3 75 3.43245399E-06 1.68954744E-11-3.15862496E-07-1.34299579E-05 6.28940172E-11
 3 76-5.25306101E-07-2.23328811E-05 1.37278237E-10-1.22789458E-08 1.22801446E-08
 3 77 0.00000000E+00 6.03403794E-07 6.34590907E-08 2.69768189E-06 3.31459251E-08
 3 78-3.31851090E-08 3.92011490E-11-1.62793877E-06-3.54854776E-07-1.50859406E-05
 3 79-1.65543785E-08-7.03907169E-07 0.00000000E+00-3.14785013E-07-5.08075773E-09
 3 80-7.41328319E-09 5.07916962E-09 2.96233125E-08 1.25917558E-06 2.50275723E-07
 3 81 1.05242091E-11 1.16126431E-11-2.36639617E-10 1.66448413E-10 8.07603852E-08
 3 82 3.43244713E-06-2.88603918E-11-3.15875452E-07-1.34299560E-05 1.25476070E-10
 3 83-5.25312210E-07-2.23328791E-05-2.58450261E-11-1.22737049E-08 1.22910824E-08
 3 84-1.73155739E-11 6.03447582E-07-6.34617847E-08-2.69768109E-06 3.31666001E-08
 3 85-3.31317760E-08-3.49276580E-11-1.62796449E-06 3.54867578E-07 1.50859429E-05
 3 86-1.65543781E-08-7.03912233E-07 0.00000000E+00-3.14775241E-07 5.08867657E-09
 3 87-7.41463694E-09-5.08816151E-09 2.96246658E-08 1.25917260E-06-2.50281457E-07
 4  1-4.98015128E-11 1.89394669E-10 2.17338936E-11 2.84517610E-11-4.18870834E-10
 4  2 9.59612925E-10-5.22886558E-09-4.31812422E-10 9.97149903E-01-2.34555143E-02
 4  3 2.62898860E-09 5.60100025E-04-1.31749884E-05 0.00000000E+00 9.05251951E-03
 4  4-2.12938399E-04 4.57441528E-11-2.49597492E-03 5.87117019E-05-7.17532680E-11
 4  5 1.10275647E-03-2.59396437E-05 1.37695987E-10 7.66600595E-04-1.80322413E-05
 4  6-4.18912622E-10-4.29679875E-05 4.29680210E-05-4.40094027E-11-1.16700047E-06
 4  7 0.00000000E+00 0.00000000E+00 1.58308159E-04-1.58307954E-04-2.15274669E-10
 4  8 4.29988157E-06 0.00000000E+00 0.00000000E+00-4.28949671E-04 4.28948554E-04
 4  9 1.11953359E-09-1.16508824E-05 0.00000000E+00 0.00000000E+00 5.80773930E-04
 4 10-5.80772120E-04-1.80742155E-09 1.57746789E-05 0.00000000E+00 0.00000000E+00
 4 11 1.25110478E-05-2.94288191E-07 0.00000000E+00-1.31611543E-07 0.00000000E+00
 4 12 5.59509577E-06 0.00000000E+00-2.23804277E-05 5.26440583E-07 0.00000000E+00
 4 13-5.44449034E-05 1.28067465E-06 0.00000000E+00 5.72739674E-07 0.00000000E+00
 4 14-2.43482473E-05 0.00000000E+00 9.73937504E-05-2.29094501E-06 0.00000000E+00
 4 15-1.20313951E-05-3.84246185E-06-1.65891714E-11 2.09449988E-07 0.00000000E+00
 4 16-3.55058254E-07 0.00000000E+00 0.00000000E+00 0.00000000E+00 1.39421579E-05
 4 17 7.19243296E-06-7.19241204E-06 0.00000000E+00 0.00000000E+00 1.95353988E-07
 4 18 3.80382255E-06 1.38392091E-05 7.92540472E-05 2.37908118E-04 9.32435949E-06
 4 19-1.35712816E-05-1.28866179E-11-2.95737158E-05 7.23038510E-05 2.00154155E-11
 4 20 2.20320354E-04-3.14342595E-04-3.22786256E-11-1.21545347E-06-1.40029240E-06
 4 21 2.61574586E-06 3.73275327E-06 0.00000000E+00 0.00000000E+00 2.93059656E-06
 4 22 7.28119124E-06-1.02117878E-05-2.21925604E-05-1.71534233E-11 1.34486824E-11
 4 23 2.90224231E-05 2.62232517E-05-1.15111133E-11 6.70305311E-06 1.82545538E-11
 4 24-6.18117508E-05 0.00000000E+00 2.28740843E-05-4.18852372E-05 0.00000000E+00
 4 25 3.50599256E-06 1.27556586E-05 7.30488749E-05 2.19281292E-04 8.71249715E-06
 4 26 1.24405112E-05-1.48338886E-11-2.62921954E-05-6.72005310E-05 1.97916662E-11
 4 27 2.06152926E-04 2.87951758E-04-4.30242716E-11-1.26110388E-06-1.14985114E-06
 4 28 2.41095502E-06-3.53437802E-06 0.00000000E+00 0.00000000E+00 3.40923134E-06
 4 29 6.00303667E-06-9.41226800E-06 2.09270591E-05-1.75247842E-11-1.39449496E-11
 4 30 2.68081804E-05-2.45008735E-05-1.11560234E-11-5.79443219E-06 1.74107923E-11
 4 31-5.69462688E-05 0.00000000E+00 2.09793205E-05 3.86658033E-05 0.00000000E+00
 4 32-7.30958950E-06-2.65951656E-05-1.52306421E-04-4.57190608E-04 3.15452196E-05
 4 33-3.54983896E-08 0.00000000E+00-1.48750559E-04-2.90216731E-07 2.23782879E-11
 4 34 7.34839540E-04-9.26076255E-07-5.05474520E-11 7.98165981E-06-2.95523850E-06
 4 35-5.02642131E-06-4.88517656E-08 0.00000000E+00 0.00000000E+00-4.38891155E-05
 4 36 2.42645605E-05 1.96245550E-05 2.45653728E-07 3.55810490E-11 0.00000000E+00
 4 37-1.31600116E-04 5.99011690E-08-1.12297802E-11-1.11562458E-07 1.61849758E-11
 4 38 8.48736937E-05 0.00000000E+00 9.16863895E-05 3.11966062E-08 0.00000000E+00
 4 39 1.51298548E-06-5.77155385E-06-1.50881756E-04 3.02901018E-04 3.54530888E-06
 4 40-4.37053357E-07 0.00000000E+00-2.37069766E-05 5.26994984E-05 0.00000000E+00
 4 41 2.39305848E-05-5.89829275E-05-1.47025984E-11 1.80036593E-06-6.17080173E-06
 4 42 4.37043580E-06 6.45875124E-06 0.00000000E+00 0.00000000E+00-4.73807370E-06
 4 43 2.78544180E-06 1.95263191E-06 4.90955642E-06 0.00000000E+00 0.00000000E+00
 4 44 1.01332224E-06-9.89052355E-08 0.00000000E+00 2.27322107E-06 0.00000000E+00
 4 45-3.07928473E-06 0.00000000E+00 1.71977027E-06-2.14052577E-06 0.00000000E+00
 4 46 1.39452749E-06-5.31968253E-06-1.39068510E-04 2.79185636E-04 3.52911364E-06
 4 47 2.51923331E-07 0.00000000E+00-2.13175193E-05-4.88813580E-05 0.00000000E+00
 4 48 2.12534871E-05 5.48288243E-05-1.11398300E-11 1.71943118E-06-5.74768716E-06
 4 49 4.02825598E-06-5.91305385E-06 0.00000000E+00 0.00000000E+00-4.86053514E-06
 4 50 3.06079912E-06 1.79973602E-06-4.85409003E-06 0.00000000E+00 0.00000000E+00
 4 51 9.12507272E-07 2.40647602E-07 0.00000000E+00-2.27362493E-06 0.00000000E+00
 4 52-2.84778671E-06 0.00000000E+00 1.62352974E-06 1.95076229E-06 0.00000000E+00
 4 53-2.90757132E-06 1.10910854E-05 2.89954019E-04-5.82085576E-04 4.13464977E-06
 4 54-7.85401690E-08 0.00000000E+00-1.10485033E-04-1.60247588E-07 0.00000000E+00
 4 55 1.21155271E-04 2.41383960E-07-1.36896041E-11 1.73378811E-05-8.93910358E-06
 4 56-8.39877751E-06 2.08223559E-08 0.00000000E+00 0.00000000E+00 5.33815833E-06
 4 57-1.58561537E-06-3.75254296E-06-1.71167094E-07 1.12305364E-11 0.00000000E+00
 4 58-6.71006472E-06-2.92207768E-08 0.00000000E+00 5.07440484E-08-1.20462435E-11
 4 59 3.78760090E-06 0.00000000E+00 5.21489561E-06-1.15402624E-08 0.00000000E+00
 4 60-2.29977465E-11 9.33621022E-11-1.03523476E-11 1.75562231E-09 1.15596830E-05
 4 61-2.71921863E-07 0.00000000E+00-2.70870583E-05 6.37260058E-07 1.42466577E-10
 4 62-7.98598330E-06 1.87870954E-07 2.49198948E-09-1.81021060E-06 1.81020478E-06
 4 63 0.00000000E+00-4.91559276E-08 3.14960524E-06-7.40808446E-08-6.23900932E-06
 4 64 6.23884187E-06 1.69712182E-10-1.69479536E-07-7.09276847E-05 1.66840467E-06
 4 65-1.06093381E-07 2.51106497E-09-7.56932363E-11 1.12363911E-09-5.24927716E-06
 4 66-4.74532594E-08 5.24938124E-06 1.89792466E-07-4.49258629E-09-1.42568064E-07
 4 67 1.70228754E-11 1.09113081E-10-2.23131934E-10 2.36618803E-09 1.15596921E-05
 4 68-2.71922900E-07 0.00000000E+00-2.70870623E-05 6.37260461E-07-6.51820678E-11
 4 69-7.98599496E-06 1.87862322E-07-3.14204708E-09-1.81019266E-06 1.81018541E-06