 !#############################################################################
 !                   D_3h RHF GEOMETRY OPTIMIZATION AND HESSIAN TEMPLATE
 ! ---------------------------------------------------------------------------
 ! Replace the symmetry-correct coordinates, should only be two atoms.  
 ! The hydrogen or fluorine should have only one non-zero x,y,z coordinate.
 ! 
 ! Basis set?   gbasis=ccd for 2nd row, 
 !                         cct 3rd/4th,
 !                   SPKrTZP for heavy,
 !                   SPKrTZC beyond 4th
 ! 
 !#############################################################################
 $system kdiag=3 mwords=1500 memddi=25000 parall=.t. $end
 $contrl runtyp=energy ispher=1 $end
 $contrl icut=9 itol=20 inttyp=rysquad qmttol=1.0d-05 nosym=1 $end
 $contrl scftyp=mcscf  mult=1 maxit=200 icharg=0 mplevl=2 $end
 $scf    npunch=2 conv=1.0d-06 dirscf=.t. $end
 $force  method=seminum $end
 $trans  dirtrf=.t. $end
 $statpt hssend=.t. $end
 $basis  gbasis=SPKrTZP $end
 !#############################################################################
 !
 !                       TURN ON THIS SECTION IF HEAVY ATOM
 !
 !#############################################################################
 !
 $contrl relwfn=LUT-IOTC $end
 $scf  diis=.t. soscf=.f. ethrsh=10.0 $end
 $guess iorder(24)=40 iorder(40)=24 iorder(30)=44 iorder(44)=30 $end
 $guess iorder(50)=64 iorder(64)=50 $end
 $gmcpt nsolut=100 $end
 !
 !#############################################################################
 !
 ! TURN ON THIS SECTION IF GMCPT, CHANGE runtyp=energy, scftyp=mcscf, change nosym=1
 !
 !#############################################################################
 $guess  guess=moread norb=369 purify=.t. norder=1 $end
 $mcscf  cistep=gmcci fullnr=.t. finci=mos
         acurcy=1.d-6 maxit=100 $end
 $mrmp   mrpt=gmcpt rdvecs=.f. $end
 $gmcpt  nmofzc=19 nmodoc=20 nmoact=11 nelact=18 stsym(1)=A
         reftyp=ormas nspace=1 mstart(1)=40 mine(1)=18 maxe(1)=18
         kstate(1)=1
         wstate(1)=1
         iwgt=0 thrwgt=-1.0 krot=.f. kszdoe=.f. knospn=.f.
         thrde=-1.0 edshft=0.02 maxbas=800 $end
 !#############################################################################
 !
 !             TURN OFF THIS SECTION IF temp.inp, add C1
 !
 !    IF SOC, $transt $end, turn knospn=.t., restart from gmcpt states calc
 !
 !#############################################################################
 $data
 Iron pentacarbonyl optimization
 C1
 FE         26.0  -0.0000000000   0.0000000000   0.0000000000
 C           6.0  -0.8824444078   1.5284385491   0.0000000000
 C           6.0  -0.8824444078  -1.5284385491   0.0000000000
 C           6.0   1.7648888155   0.0000000000   0.0000000000
 O           8.0  -1.4586915946   2.5265279545   0.0000000000
 O           8.0  -1.4586915946  -2.5265279545   0.0000000000
 O           8.0   2.9173831893   0.0000000000   0.0000000000
 C           6.0   0.0000000000   0.0000000000  -1.6781093310
 C           6.0  -0.0000000000   0.0000000000   1.6781093310
 O           8.0  -0.0000000000   0.0000000000  -2.8433375200
 O           8.0  -0.0000000000   0.0000000000   2.8433375200
 $end
Semi-canonical MOs --- generated at Fri Mar 22 05:29:28 2024
 $VEC   
 1  1 9.97431375E-01 1.19390743E-02 3.44445733E-03-7.25021282E-03 2.26168656E-03
 1  2-3.50900952E-03 6.96711655E-04-7.89729521E-05-1.12500383E-11-0.00000000E+00
 1  3-0.00000000E+00-1.79230302E-11-0.00000000E+00-0.00000000E+00 5.29682037E-11
 1  4 3.77244242E-11 5.95722086E-11-1.55136975E-10-1.16265492E-10-5.09822407E-11
 1  5 3.20530558E-10 2.62331741E-10 1.16756210E-11-3.03795841E-10-9.69083717E-10
 1  6 8.19128717E-10 2.11223988E-06 2.11221619E-06-4.22445607E-06-1.52807080E-11
 1  7-0.00000000E+00-0.00000000E+00-1.73729536E-05-1.73728493E-05 3.47458030E-05
 1  8 3.50460295E-11-0.00000000E+00-0.00000000E+00 1.34444339E-04 1.34443880E-04
 1  9-2.68888219E-04-1.94592906E-10 1.44288316E-11-0.00000000E+00-4.81803716E-05
 1 10-4.81796226E-05 9.63599941E-05 2.54407033E-10-1.93622293E-11-0.00000000E+00
 1 11 1.58951277E-05-0.00000000E+00-0.00000000E+00-0.00000000E+00-0.00000000E+00
 1 12-2.13255461E-05-0.00000000E+00-0.00000000E+00-0.00000000E+00-0.00000000E+00
 1 13-1.12849196E-04-0.00000000E+00-0.00000000E+00-0.00000000E+00-0.00000000E+00
 1 14 1.51403130E-04-0.00000000E+00-4.53054739E-11-0.00000000E+00-0.00000000E+00
 1 15-1.77432733E-05-1.77432755E-05-4.73154317E-05-0.00000000E+00-0.00000000E+00
 1 16-0.00000000E+00-0.00000000E+00-0.00000000E+00-0.00000000E+00-1.03894269E-05
 1 17 4.15576181E-05 4.15576218E-05-0.00000000E+00-0.00000000E+00-0.00000000E+00
 1 18-2.98325706E-05-1.93957139E-04 5.32189354E-04 3.64484030E-05-1.46117642E-05
 1 19 2.53083376E-05-0.00000000E+00 1.12227431E-04-1.94383667E-04-0.00000000E+00
 1 20-1.06016644E-04 1.83626261E-04-3.09542881E-11 1.56122125E-06-5.22860053E-06
 1 21 3.66737928E-06 6.78980568E-06-0.00000000E+00-0.00000000E+00-2.59182985E-05
 1 22 1.41716030E-04-1.15797732E-04-1.67633970E-04-0.00000000E+00-0.00000000E+00
 1 23-3.73828814E-05-2.81126567E-05-0.00000000E+00-1.25723509E-05-0.00000000E+00
 1 24 7.91890301E-05-0.00000000E+00-2.90346317E-05 5.02894378E-05-0.00000000E+00
 1 25-2.98325928E-05-1.93957288E-04 5.32190121E-04 3.64474100E-05-1.46117756E-05
 1 26-2.53083471E-05-0.00000000E+00 1.12227417E-04 1.94383636E-04-0.00000000E+00
 1 27-1.06017466E-04-1.83627532E-04-3.14045130E-11 1.56121711E-06-5.22860455E-06
 1 28 3.66738744E-06-6.78980805E-06-0.00000000E+00-0.00000000E+00-2.59183046E-05
 1 29 1.41716139E-04-1.15797835E-04 1.67634141E-04-0.00000000E+00-0.00000000E+00
 1 30-3.73828947E-05 2.81126622E-05-0.00000000E+00 1.25723566E-05-0.00000000E+00
 1 31 7.91890602E-05-0.00000000E+00-2.90346440E-05-5.02894508E-05-0.00000000E+00
 1 32-2.98325510E-05-1.93956880E-04 5.32189780E-04 3.64479795E-05 2.92235662E-05
 1 33-0.00000000E+00-0.00000000E+00-2.24454670E-04-0.00000000E+00-0.00000000E+00
 1 34 2.12034031E-04 7.65627325E-11-2.71779341E-11-8.62341361E-06 4.95606780E-06
 1 35 3.66734580E-06-0.00000000E+00-0.00000000E+00-0.00000000E+00 2.25532839E-04
 1 36-1.09735134E-04-1.15797706E-04 2.64942259E-11-0.00000000E+00-0.00000000E+00
 1 37-8.60753769E-05-0.00000000E+00-0.00000000E+00-0.00000000E+00-0.00000000E+00
 1 38 5.74130316E-05-0.00000000E+00 5.80692048E-05-0.00000000E+00-0.00000000E+00
 1 39-4.24484995E-07 1.67554907E-05 5.69377036E-06-3.68041868E-04-1.28544292E-06
 1 40 2.22645618E-06-0.00000000E+00 2.95978850E-05-5.12650705E-05-0.00000000E+00
 1 41-5.32849784E-05 9.22920730E-05 1.84199311E-11-1.15968229E-06 5.84114195E-06
 1 42-4.68145966E-06-7.00088187E-06-0.00000000E+00-0.00000000E+00-4.19619722E-06
 1 43 1.99748963E-05-1.57786991E-05-2.41710179E-05-0.00000000E+00-0.00000000E+00
 1 44-6.66521739E-06-4.75527520E-06-0.00000000E+00-2.12662042E-06-0.00000000E+00
 1 45 1.38535254E-05-0.00000000E+00-4.91119793E-06 8.50649157E-06-0.00000000E+00
 1 46-4.24480545E-07 1.67555198E-05 5.69369246E-06-3.68043143E-04-1.28544168E-06
 1 47-2.22645449E-06-0.00000000E+00 2.95978782E-05 5.12650664E-05-0.00000000E+00
 1 48-5.32851308E-05-9.22924109E-05 1.75422331E-11-1.15968598E-06 5.84114961E-06
 1 49-4.68146364E-06 7.00088382E-06-0.00000000E+00-0.00000000E+00-4.19618732E-06
 1 50 1.99748767E-05-1.57786894E-05 2.41710125E-05-0.00000000E+00-0.00000000E+00
 1 51-6.66521352E-06 4.75527908E-06-0.00000000E+00 2.12662136E-06-0.00000000E+00
 1 52 1.38535250E-05-0.00000000E+00-4.91120268E-06-8.50649772E-06-0.00000000E+00
 1 53-4.24482434E-07 1.67554515E-05 5.69372693E-06-3.68042543E-04 2.57085894E-06
 1 54-0.00000000E+00-0.00000000E+00-5.91955986E-05-0.00000000E+00-0.00000000E+00
 1 55 1.06570009E-04-3.61154926E-11 1.84830970E-11 9.34160160E-06-4.66014307E-06
 1 56-4.68145853E-06-0.00000000E+00-0.00000000E+00-0.00000000E+00 3.20602414E-05
 1 57-1.62816189E-05-1.57786225E-05-0.00000000E+00-0.00000000E+00-0.00000000E+00
 1 58-1.49015288E-05-0.00000000E+00-0.00000000E+00-0.00000000E+00-0.00000000E+00
 1 59 1.01700864E-05-0.00000000E+00 9.82241248E-06-0.00000000E+00-0.00000000E+00
 1 60-4.42350454E-05-2.52489615E-04 7.68224843E-04 7.27768250E-07-1.93524735E-11
 1 61-0.00000000E+00-2.96920086E-05-0.00000000E+00-0.00000000E+00 3.09713108E-04
 1 62 3.91655017E-11-0.00000000E+00-1.99935871E-04-2.41100985E-06-2.41097791E-06
 1 63 4.82198775E-06-0.00000000E+00-4.24777323E-11-0.00000000E+00-1.74721612E-04
 1 64-1.74721657E-04 3.49443269E-04-0.00000000E+00 6.39896149E-11-0.00000000E+00
 1 65-1.65305040E-07-0.00000000E+00 9.07122134E-05-0.00000000E+00-6.08515837E-05
 1 66 2.21737406E-07-6.08516215E-05 4.39665485E-11-0.00000000E+00-0.00000000E+00
 1 67-4.42350355E-05-2.52489572E-04 7.68225028E-04 7.27130860E-07-1.89111949E-11
 1 68-0.00000000E+00 2.96920240E-05-0.00000000E+00-0.00000000E+00-3.09713270E-04
 1 69 4.57219539E-11-0.00000000E+00 1.99937311E-04-2.41099851E-06-2.41096502E-06
 1 70 4.82196354E-06-0.00000000E+00 3.94797124E-11-0.00000000E+00-1.74721568E-04
 1 71-1.74721611E-04 3.49443179E-04-0.00000000E+00-6.68475412E-11-0.00000000E+00
 1 72-1.65302274E-07-0.00000000E+00-9.07122790E-05-0.00000000E+00 6.08516281E-05
 1 73 2.21738572E-07 6.08516652E-05 3.90624310E-11-0.00000000E+00-0.00000000E+00
 1 74 6.51694555E-07 2.33912147E-05-8.60320325E-05-3.75605161E-04-0.00000000E+00
 1 75-0.00000000E+00-3.01599078E-06-1.90118397E-11-0.00000000E+00 4.84348091E-05
 1 76 3.59144947E-11-0.00000000E+00-1.22557090E-04-3.44818602E-06-3.44817613E-06
 1 77 6.89636215E-06-0.00000000E+00-0.00000000E+00-0.00000000E+00-2.06602262E-05
 1 78-2.06602033E-05 4.13204295E-05-0.00000000E+00 2.27202184E-11-0.00000000E+00
 1 79-1.33644082E-07-0.00000000E+00 1.61798820E-05-0.00000000E+00-1.08537997E-05
 1 80 1.79303045E-07-1.08537900E-05-0.00000000E+00-0.00000000E+00-0.00000000E+00
 1 81 6.51679406E-07 2.33911248E-05-8.60314563E-05-3.75606632E-04-0.00000000E+00
 1 82-0.00000000E+00 3.01601425E-06-1.61222450E-11-0.00000000E+00-4.84349737E-05
 1 83 3.74392674E-11-0.00000000E+00 1.22557479E-04-3.44819929E-06-3.44818761E-06
 1 84 6.89638690E-06-0.00000000E+00-0.00000000E+00-0.00000000E+00-2.06602152E-05
 1 85-2.06601895E-05 4.13204047E-05-0.00000000E+00-2.31610785E-11-0.00000000E+00
 1 86-1.33644160E-07-0.00000000E+00-1.61798838E-05-0.00000000E+00 1.08537972E-05
 1 87 1.79302961E-07 1.08537948E-05-0.00000000E+00-0.00000000E+00-0.00000000E+00
 2  1-3.20564025E-01 1.04846446E+00 2.73407769E-02-1.43628729E-02 4.81051117E-03
 2  2-1.10610364E-02 1.10901430E-03-2.35764912E-04-2.59555568E-10-0.00000000E+00
 2  3-6.40231484E-11 3.57122308E-11-0.00000000E+00-1.15370900E-10-1.92553942E-10
 2  4-4.05794534E-11-4.89277124E-11 4.91126670E-10 1.74750886E-10-3.06385822E-10
 2  5-4.78726065E-10-4.19326350E-10 5.23066607E-10-3.05425694E-09 6.80743400E-10
 2  6-2.62497553E-09-7.12846154E-04-7.12846269E-04 1.42569242E-03 1.08344447E-11
 2  7 1.73062828E-11-0.00000000E+00 1.44701483E-04 1.44701677E-04-2.89403160E-04
 2  8-3.46686231E-11-3.78204140E-11-0.00000000E+00 3.64864248E-04 3.64863376E-04
 2  9-7.29727625E-04 2.64308159E-10 1.34043090E-10-0.00000000E+00-9.22568678E-05
 2 10-9.22546100E-05 1.84511478E-04-2.64865553E-10-2.09421703E-10-0.00000000E+00
 2 11 8.28620180E-05-0.00000000E+00-0.00000000E+00-0.00000000E+00-0.00000000E+00
 2 12-1.11171067E-04-0.00000000E+00-0.00000000E+00-0.00000000E+00-0.00000000E+00
 2 13-4.79871604E-04-1.28166043E-11 1.08868174E-11-0.00000000E+00-0.00000000E+00
 2 14 6.43815257E-04-1.61364488E-11 6.25627754E-11 1.78141454E-11-0.00000000E+00
 2 15-1.13018454E-04-1.13018411E-04-3.01382411E-04-0.00000000E+00-0.00000000E+00
 2 16-0.00000000E+00-0.00000000E+00-0.00000000E+00-0.00000000E+00-6.61767516E-05
 2 17 2.64707242E-04 2.64707167E-04-0.00000000E+00-0.00000000E+00-0.00000000E+00
 2 18 3.80835897E-05-9.32122974E-04 1.27895196E-03-5.84287031E-05-1.76179205E-04
 2 19 3.05151471E-04-0.00000000E+00 3.82287391E-04-6.62141073E-04 2.35199042E-11
 2 20-3.72298513E-04 6.44840087E-04-6.75976078E-11 1.04723782E-06-1.79016408E-05
 2 21 1.68544030E-05 1.89489108E-05-0.00000000E+00-0.00000000E+00-8.77005143E-05
 2 22 4.39747386E-04-3.52046872E-04-5.27447523E-04-0.00000000E+00 4.13794953E-11
 2 23-1.67955181E-04-1.18069875E-04-0.00000000E+00-5.28024857E-05-0.00000000E+00
 2 24 3.47277552E-04-0.00000000E+00-1.21942031E-04 2.11209846E-04-0.00000000E+00
 2 25 3.80835982E-05-9.32122934E-04 1.27895189E-03-5.84284991E-05-1.76179212E-04
 2 26-3.05151436E-04-0.00000000E+00 3.82287351E-04 6.62140938E-04 2.08988339E-11
 2 27-3.72298233E-04-6.44839673E-04-6.94622451E-11 1.04722805E-06-1.79016290E-05
 2 28 1.68544010E-05-1.89488813E-05-0.00000000E+00-0.00000000E+00-8.77005068E-05
 2 29 4.39747284E-04-3.52046777E-04 5.27447331E-04-0.00000000E+00-4.18150757E-11
 2 30-1.67955132E-04 1.18069845E-04-0.00000000E+00 5.28024806E-05-0.00000000E+00
 2 31 3.47277486E-04-0.00000000E+00-1.21942030E-04-2.11209800E-04-0.00000000E+00
 2 32 3.80836504E-05-9.32122902E-04 1.27894979E-03-5.84255966E-05 3.52358595E-04
 2 33-0.00000000E+00-1.34610797E-11-7.64576129E-04-2.98718648E-11 4.38243689E-11
 2 34 7.44592212E-04-7.83551990E-11-5.17466072E-11-2.73762377E-05 1.05217890E-05
 2 35 1.68544488E-05-1.31104142E-11-0.00000000E+00-0.00000000E+00 7.03470551E-04
 2 36-3.51423996E-04-3.52046555E-04-4.55176075E-11-0.00000000E+00-0.00000000E+00
 2 37-3.72458327E-04-0.00000000E+00-0.00000000E+00-1.18160234E-11-0.00000000E+00
 2 38 2.55821129E-04-0.00000000E+00 2.43884154E-04-0.00000000E+00-0.00000000E+00
 2 39-2.30668483E-05 9.03746800E-05 2.74021148E-04-1.12578332E-03 3.25736948E-05
 2 40-5.64191028E-05-0.00000000E+00 2.01675368E-04-3.49311693E-04-1.90581512E-11
 2 41-1.13201682E-04 1.96070958E-04-0.00000000E+00-6.10765599E-06 2.88200198E-05
 2 42-2.27123638E-05-3.49277226E-05-0.00000000E+00-0.00000000E+00-1.81285761E-05
 2 43 8.86692862E-05-7.05407101E-05-1.06797827E-04-0.00000000E+00 1.13291800E-11
 2 44-2.54930513E-05-1.76123799E-05-0.00000000E+00-7.87646342E-06-0.00000000E+00
 2 45 5.23924927E-05-0.00000000E+00-1.81899753E-05 3.15059506E-05-0.00000000E+00
 2 46-2.30668516E-05 9.03747181E-05 2.74021038E-04-1.12578270E-03 3.25737141E-05
 2 47 5.64190763E-05-0.00000000E+00 2.01675299E-04 3.49311636E-04-2.19015192E-11
 2 48-1.13201625E-04-1.96070817E-04-0.00000000E+00-6.10764143E-06 2.88199983E-05
 2 49-2.27123569E-05 3.49277148E-05-0.00000000E+00-0.00000000E+00-1.81286180E-05
 2 50 8.86693198E-05-7.05407018E-05 1.06797807E-04-0.00000000E+00-1.12278323E-11
 2 51-2.54930567E-05 1.76123809E-05-0.00000000E+00 7.87645907E-06-0.00000000E+00
 2 52 5.23924962E-05-0.00000000E+00-1.81899716E-05-3.15059477E-05-0.00000000E+00
 2 53-2.30668973E-05 9.03746652E-05 2.74021986E-04-1.12577892E-03-6.51470653E-05
 2 54-0.00000000E+00-0.00000000E+00-4.03350905E-04 1.70111756E-11-1.08090606E-11
 2 55 2.26401936E-04 5.47161906E-11-0.00000000E+00 4.62838599E-05-2.35715236E-05
 2 56-2.27123363E-05 1.81565845E-11-0.00000000E+00-0.00000000E+00 1.42068415E-04
 2 57-7.15275981E-05-7.05408170E-05-3.58969998E-11-0.00000000E+00-0.00000000E+00
 2 58-5.59985192E-05-0.00000000E+00-0.00000000E+00-0.00000000E+00-0.00000000E+00
 2 59 3.87499857E-05-0.00000000E+00 3.63799117E-05-0.00000000E+00-0.00000000E+00
 2 60-3.58892141E-04-4.63426240E-04 3.01522648E-03 4.12492392E-04-0.00000000E+00
 2 61-0.00000000E+00 1.73766227E-04-0.00000000E+00 3.52624260E-11 1.85811626E-03
 2 62-1.04473358E-10-6.61013040E-11-1.85821899E-04-1.19092356E-05-1.19092852E-05
 2 63 2.38185208E-05-0.00000000E+00-0.00000000E+00-0.00000000E+00-5.67726318E-04
 2 64-5.67726183E-04 1.13545250E-03-0.00000000E+00-2.37609181E-11-4.00480490E-11
 2 65 4.23703856E-07-1.83946262E-11 4.33017850E-04-0.00000000E+00-2.90477193E-04
 2 66-5.68474523E-07-2.90477216E-04 1.87204021E-11 2.51821136E-11-0.00000000E+00
 2 67-3.58892133E-04-4.63426003E-04 3.01522443E-03 4.12495453E-04-2.38757670E-11
 2 68-0.00000000E+00-1.73766229E-04 2.21050391E-11 3.30073833E-11-1.85811674E-03
 2 69-0.00000000E+00-6.53514509E-11 1.85817904E-04-1.19092164E-05-1.19092568E-05
 2 70 2.38184732E-05-0.00000000E+00 2.65338528E-11-0.00000000E+00-5.67726023E-04
 2 71-5.67725866E-04 1.13545189E-03-0.00000000E+00-4.90753061E-11 3.44104984E-11
 2 72 4.23737230E-07-1.70617240E-11-4.33017890E-04-0.00000000E+00 2.90477216E-04
 2 73-5.68484703E-07 2.90477247E-04-1.58521178E-11 2.30752930E-11-0.00000000E+00
 2 74 2.20367219E-05 4.15105790E-05-3.42212655E-05-1.01967734E-03 3.70371443E-11
 2 75-0.00000000E+00-1.39209646E-04-7.55306228E-11-2.92307557E-11 1.70345230E-04
 2 76 4.32563897E-11-1.18635176E-11-4.03655667E-04-1.45485368E-05-1.45485018E-05
 2 77 2.90970386E-05-0.00000000E+00 1.57516919E-11-0.00000000E+00-8.13898267E-05
 2 78-8.13898483E-05 1.62779675E-04-0.00000000E+00-0.00000000E+00-3.11055731E-11
 2 79-4.61936355E-07-0.00000000E+00 5.44007983E-05-0.00000000E+00-3.64931504E-05
 2 80 6.19773719E-07-3.64931794E-05-2.26646132E-11-0.00000000E+00-0.00000000E+00
 2 81 2.20366982E-05 4.15105201E-05-3.42206692E-05-1.01967409E-03 3.55615289E-11
 2 82-0.00000000E+00 1.39209686E-04-3.70940868E-11-2.94953398E-11-1.70345419E-04
 2 83 2.35329585E-11-1.51476750E-11 4.03654553E-04-1.45485312E-05-1.45485111E-05
 2 84 2.90970423E-05-0.00000000E+00-0.00000000E+00-0.00000000E+00-8.13898934E-05
 2 85-8.13899089E-05 1.62779802E-04-0.00000000E+00-3.39940590E-11 2.94532957E-11
 2 86-4.61939688E-07-0.00000000E+00-5.44008151E-05-0.00000000E+00 3.64931476E-05
 2 87 6.19773770E-07 3.64932048E-05-1.81978342E-11-0.00000000E+00-0.00000000E+00
 3  1-3.99307929E-11 1.46888460E-10 3.86281422E-11 1.47489528E-11-3.44178330E-10
 3  2 1.05641566E-09-5.62048854E-09-4.30181818E-10 5.36665468E-01 8.40817149E-01
 3  3-1.54754748E-08 2.06133063E-04 3.22957661E-04 1.95870525E-11 4.96215731E-03
 3  4 7.77442769E-03-9.13422430E-11-1.48270214E-03-2.32301377E-03-0.00000000E+00
 3  5 8.36365759E-04 1.31037049E-03 9.25711408E-11 5.48632502E-04 8.59565575E-04
 3  6-3.30157505E-10-1.98489442E-05 1.98493199E-05-3.81390843E-10 3.59098694E-05
 3  7-1.11099234E-11-1.87615567E-11 8.35369192E-05-8.35367372E-05-1.87609965E-10
 3  8-1.51128085E-04-1.52365825E-11-0.00000000E+00-2.13118724E-04 2.13117841E-04
 3  9 8.84146794E-10 3.85556044E-04 1.87640049E-11-0.00000000E+00 4.36185134E-04
 3 10-4.36183458E-04-1.67466650E-09-7.89109041E-04-2.81181090E-11-7.46588905E-11
 3 11-1.29669946E-04-2.03159535E-04-0.00000000E+00-9.08557073E-05-0.00000000E+00
 3 12-5.79901892E-05-0.00000000E+00 2.31960678E-04 3.63422826E-04-1.07995691E-11
 3 13 3.87160050E-05 6.06582845E-05 3.74750656E-11 2.71272257E-05-2.51503353E-11
 3 14 1.73144920E-05-2.51393453E-11-6.92574635E-05-1.08508854E-04-0.00000000E+00
 3 15 4.53833367E-06 1.54889533E-06-2.39370126E-11 5.43918620E-06-0.00000000E+00
 3 16-8.97974005E-06-0.00000000E+00-0.00000000E+00-0.00000000E+00-5.34649328E-06
 3 17-2.62563500E-06 2.62567257E-06-0.00000000E+00-0.00000000E+00 4.75015145E-06
 3 18 4.83048145E-06 5.01934596E-05-2.59851484E-04-2.90789725E-04-5.20579704E-07
 3 19 1.23814745E-06-2.96905592E-11-8.16068091E-06 4.33064460E-05 2.90098558E-11
 3 20-1.68828927E-04 3.89925065E-04-1.30030800E-11-1.37510267E-06 2.22092354E-06
 3 21-8.45820874E-07-3.84734473E-07-0.00000000E+00-2.18901137E-11 3.41703204E-05
 3 22-7.44032721E-05 4.02329517E-05 5.45272028E-05 1.82203620E-11-0.00000000E+00
 3 23-1.93001397E-05-1.38185771E-05-0.00000000E+00-3.89910153E-06-0.00000000E+00
 3 24 3.86526568E-05-0.00000000E+00-1.27588022E-05 2.24386681E-05-0.00000000E+00
 3 25-1.04681618E-05-1.08773280E-04 5.63120760E-04 6.30165374E-04 1.45126682E-06
 3 26 2.49698915E-06-1.71113733E-11 4.56917931E-05 7.76788730E-05 2.25261233E-11
 3 27 4.59477687E-04 7.90952828E-04-2.55724622E-11 3.09930357E-07-2.14289403E-06
 3 28 1.83296367E-06-2.61369344E-06-0.00000000E+00-2.59616905E-11-2.91130889E-05
 3 29 1.16301417E-04-8.71883277E-05 1.48122819E-04-2.24259871E-11-0.00000000E+00
 3 30 4.16425499E-05-2.70138190E-05-0.00000000E+00-1.21952559E-05-0.00000000E+00
 3 31-8.38449109E-05-0.00000000E+00 2.79755675E-05 4.84380973E-05-0.00000000E+00
 3 32 5.63759148E-06 5.85797981E-05-3.03270148E-04-3.39375324E-04 1.55524542E-06
 3 33 1.59776588E-07-0.00000000E+00 4.85307669E-05 1.38550706E-05-0.00000000E+00
 3 34 4.92623799E-04 4.63093570E-05 1.05977119E-11 1.87924464E-06-8.92256070E-07
 3 35-9.86988571E-07 1.52513864E-06-0.00000000E+00-0.00000000E+00-1.02885121E-04
 3 36 5.59296085E-05 4.69555127E-05-2.56690309E-05 1.02379859E-11-0.00000000E+00
 3 37-4.76893629E-05 1.12086494E-06-0.00000000E+00-1.66516224E-06 1.08583356E-11
 3 38 3.38572080E-05-0.00000000E+00 3.01247863E-05 1.61364112E-07-1.11657766E-11
 3 39-1.07896680E-06 8.52523267E-07 1.38361604E-04-2.75983004E-04 2.15180632E-06
 3 40 2.21049375E-06-0.00000000E+00 2.83558184E-05-1.84075987E-05-1.38152102E-11
 3 41-3.13326844E-05 4.39991528E-05 4.14079782E-11-8.72134319E-09 3.46077331E-06
 3 42-3.45205196E-06-4.91566932E-06-0.00000000E+00-0.00000000E+00-1.72580255E-06
 3 43-4.73443243E-06 6.46023498E-06 7.86821630E-06-1.09765628E-11-2.88350057E-11
 3 44-8.07070010E-07-5.74465477E-07-0.00000000E+00 1.40550082E-06-0.00000000E+00
 3 45 4.53233821E-07-1.28124269E-11 6.29564223E-07-6.34774507E-07-0.00000000E+00
 3 46 2.33828001E-06-1.84729531E-06-2.99841332E-04 5.98077346E-04 1.03707072E-06
 3 47 1.49893649E-06-0.00000000E+00-3.19696683E-05-5.69115710E-05-1.22464580E-11
 3 48 5.80395439E-05 1.01042263E-04-1.96041482E-11 1.22133345E-06-8.70218520E-06
 3 49 7.48085175E-06-9.85104378E-06-0.00000000E+00-0.00000000E+00-3.00570544E-07
 3 50 1.43002777E-05-1.39997071E-05 1.43572947E-05-1.10842607E-11-2.62099469E-11
 3 51 1.50441055E-06 9.56731240E-07-0.00000000E+00 3.44562219E-07-0.00000000E+00
 3 52-1.09154201E-06-1.21329890E-11-9.26836543E-07-1.62815187E-06-0.00000000E+00
 3 53-1.25933384E-06 9.94693340E-07 1.61481484E-04-3.22093258E-04 9.78725016E-07
 3 54 2.81991815E-06-0.00000000E+00-3.51528686E-05 1.45836514E-05-0.00000000E+00
 3 55 6.27539519E-05-4.87809914E-06-0.00000000E+00 7.32950460E-06-3.30064859E-06
 3 56-4.02885601E-06-6.86862371E-07-0.00000000E+00-0.00000000E+00-1.15343591E-05
 3 57 3.99496012E-06 7.53939900E-06 2.30806046E-06 1.06576695E-11-0.00000000E+00
 3 58 3.27639684E-08 7.61774084E-07 1.21935323E-11-1.23841949E-06-1.76149366E-11
 3 59 9.64923607E-07-0.00000000E+00-1.00888108E-06 2.16392314E-07-0.00000000E+00
 3 60 8.63193269E-11-1.74215062E-10 4.97142269E-10 1.28819895E-09 4.38391377E-07
 3 61 6.86858539E-07-1.24316041E-10 1.16123997E-05 1.81936759E-05-0.00000000E+00
 3 62-1.32868393E-06-2.08167860E-06 1.43084000E-09-1.51817656E-06 1.51818718E-06
 3 63-0.00000000E+00 2.74656685E-06 1.95761168E-06 3.06710560E-06-5.29637661E-06
 3 64 5.29623555E-06 1.42274299E-10 9.58165146E-06-1.93700527E-05-3.03479114E-05
 3 65-1.81086930E-05-2.83717125E-05-5.34086227E-11-1.26882077E-05-6.29499232E-06
 3 66-8.09846058E-06 6.29506540E-06 3.23938218E-05 5.07528544E-05 1.13884869E-05
 3 67 7.83570607E-11-1.75770284E-10 6.39224114E-10 1.67942616E-09 4.38391822E-07
 3 68 6.86861260E-07 1.27474121E-10 1.16123832E-05 1.81936995E-05 2.53237515E-10
 3 69-1.32874212E-06-2.08168079E-06-1.76283686E-09-1.51818492E-06 1.51815389E-06
 3 70 3.32526316E-11 2.74655430E-06-1.95763790E-06-3.06709978E-06-5.29640074E-06
 3 71 5.29619910E-06 2.02820397E-10 9.58169592E-06 1.93700557E-05 3.03479424E-05
 3 72-1.81086896E-05-2.83717280E-05 1.51511075E-10-1.26882237E-05 6.29493026E-06
 3 73-8.09847499E-06-6.29513495E-06 3.23938315E-05 5.07528911E-05-1.13884824E-05
 3 74-0.00000000E+00-3.80836710E-11-1.60874609E-10 6.61395188E-10 4.35106512E-06
 3 75 6.81699052E-06 4.65476590E-11-2.03850914E-05-3.19382446E-05 2.13572637E-11
 3 76-1.07568278E-05-1.68532105E-05 9.87747691E-11-2.65269502E-07 2.65277092E-07
 3 77-0.00000000E+00 4.79914055E-07-2.69278731E-07-4.21896946E-07 2.01424491E-07
 3 78-2.01424266E-07-0.00000000E+00-3.64380672E-07-1.75609581E-05-2.75135078E-05
 3 79 3.00954341E-06 4.71518805E-06-0.00000000E+00 2.10869865E-06-7.50614106E-07
 3 80 1.34591329E-06 7.50605358E-07-5.38363947E-06-8.43478725E-06 1.35795528E-06
 3 81-5.09683344E-11 3.40446432E-11-4.61625211E-10 7.82762656E-10 4.35107609E-06
 3 82 6.81699373E-06-6.58957585E-11-2.03850789E-05-3.19382512E-05 1.16835644E-10
 3 83-1.07567951E-05-1.68532286E-05-1.14811548E-10-2.65281104E-07 2.65294508E-07
 3 84-1.37189070E-11 4.79928713E-07 2.69282584E-07 4.21894037E-07 2.01440663E-07
 3 85-2.01394487E-07-4.77929403E-11-3.64398992E-07 1.75609437E-05 2.75135360E-05
 3 86 3.00953659E-06 4.71517563E-06-0.00000000E+00 2.10871387E-06 7.50611596E-07
 3 87 1.34591421E-06-7.50619957E-07-5.38363125E-06-8.43478581E-06-1.35796121E-06
 4  1-6.52928672E-11 2.05631249E-10-8.47299775E-11 8.85094030E-11-1.74479957E-10
 4  2 5.76612341E-10-4.01826235E-09-4.36404838E-10 8.40817149E-01-5.36665468E-01
 4  3-2.84018501E-08 3.22957618E-04-2.06133090E-04 8.11180392E-11 7.77442782E-03
 4  4-4.96215722E-03-6.23228563E-11-2.32301395E-03 1.48270201E-03 5.09718023E-11
 4  5 1.31037069E-03-8.36365598E-04 1.66484633E-10 8.59566578E-04-5.48632056E-04
 4  6-1.67227551E-09-3.10986743E-05 3.10988166E-05-1.51217317E-10-2.29198257E-05
 4  7-1.92512136E-11 1.02750625E-11 1.30880897E-04-1.30880768E-04-1.37287775E-10
 4  8 9.64599708E-05-2.55441724E-11-0.00000000E+00-3.33901917E-04 3.33901275E-04
 4  9 6.43840583E-10-2.46087620E-04 2.99553029E-11-0.00000000E+00 6.83389368E-04
 4 10-6.83388218E-04-1.14725671E-09 5.03662088E-04-4.93188970E-11 5.55334986E-11
 4 11-2.03159514E-04 1.29669963E-04-0.00000000E+00 5.79901738E-05-0.00000000E+00
 4 12-9.08557239E-05-0.00000000E+00 3.63422814E-04-2.31960685E-04-0.00000000E+00
 4 13 6.06580986E-05-3.87161272E-05-0.00000000E+00-1.73143932E-05-0.00000000E+00
 4 14 2.71273747E-05-0.00000000E+00-1.08508754E-04 6.92575285E-05-0.00000000E+00
 4 15 7.11041351E-06 2.42673520E-06-2.96830342E-11-3.47164189E-06-0.00000000E+00
 4 16 5.73146093E-06-0.00000000E+00-0.00000000E+00-0.00000000E+00-8.37659634E-06
 4 17-4.11369918E-06 4.11374443E-06-0.00000000E+00-0.00000000E+00-3.03186539E-06
 4 18-9.29860325E-06-9.66213598E-05 5.00209873E-04 5.59764382E-04 1.35832973E-06
 4 19-2.17805459E-06-2.54159979E-11 4.65868986E-05-6.55366650E-05 5.06617256E-11
 4 20 4.28199339E-04-6.91010763E-04-5.02808188E-11-2.96672391E-07-1.33151836E-06
 4 21 1.62819075E-06 2.70298424E-06-0.00000000E+00 1.27653072E-11-1.62340954E-05
 4 22 9.36819155E-05-7.74478201E-05-1.37992443E-04-3.17776966E-11 2.36912954E-11
 4 23 3.69512593E-05 2.33677517E-05-0.00000000E+00 1.16352159E-05-0.00000000E+00
 4 24-7.44953970E-05-0.00000000E+00 2.49200803E-05-4.29863447E-05-0.00000000E+00
 4 25 4.65990907E-07 4.84177796E-06-2.50658895E-05-2.80504567E-05 9.97572569E-08
 4 26-2.05938403E-07-3.29871223E-11 1.22147122E-05-1.16840669E-05 5.74795372E-11
 4 27 2.71721946E-05-6.27040996E-05-4.48232000E-11-1.37217820E-06 1.45375365E-06
 4 28-8.15754527E-08-7.89208504E-07-0.00000000E+00 1.52010031E-11 2.41575547E-05
 4 29-2.80384742E-05 3.88091948E-06 8.64772604E-06-0.00000000E+00-1.45974080E-11
 4 30-1.94643428E-06 2.69423056E-06-0.00000000E+00-1.36271219E-06 1.19221954E-11
 4 31 3.69074931E-06-0.00000000E+00-1.07933369E-06-2.25197741E-06-0.00000000E+00
 4 32 8.83277483E-06 9.17795381E-05-4.75147015E-04-5.31714657E-04 2.43676962E-06
 4 33-1.01960958E-07-0.00000000E+00 7.60355563E-05-8.84319849E-06-0.00000000E+00
 4 34 7.71816024E-04-2.95576687E-05 2.02794424E-11 2.94432640E-06-1.39795818E-06
 4 35-1.54636822E-06-9.73453490E-07-0.00000000E+00-0.00000000E+00-1.61194759E-04
 4 36 8.76274513E-05 7.35673077E-05 1.63836514E-05 1.80184475E-11-0.00000000E+00
 4 37-7.47169438E-05-7.15414696E-07-1.09154951E-11 1.06281394E-06 1.58935765E-11
 4 38 5.30455319E-05-0.00000000E+00 4.71977673E-05-1.02984406E-07-0.00000000E+00
 4 39 2.07705825E-06-1.64089500E-06-2.66343596E-04 5.31261099E-04 2.14229681E-06
 4 40-6.26455119E-07 1.25816999E-11-2.20828474E-05 5.41996976E-05-1.92196334E-11
 4 41 4.94430279E-05-9.09735624E-05-2.77878292E-11 1.34247269E-06-7.98757350E-06
 4 42 6.64510081E-06 8.57878760E-06-0.00000000E+00-0.00000000E+00-1.13254136E-06
 4 43 1.35682157E-05-1.24356744E-05-1.21762705E-05-1.81194542E-11 1.73293843E-11
 4 44 1.28396142E-06-1.32147893E-06 1.21217285E-11 2.72600618E-07-0.00000000E+00
 4 45-9.93042787E-07-1.91677200E-11-7.29572219E-07 1.50034941E-06-0.00000000E+00
 4 46-1.04059518E-07 8.23147699E-08 1.33468190E-05-2.66224474E-05 2.85382940E-06
 4 47-1.74117320E-06-0.00000000E+00 1.64209425E-05-6.12594071E-06-1.79433834E-11
 4 48-7.60023767E-06-1.60154746E-06-0.00000000E+00 5.57373983E-07-2.24354075E-07
 4 49-3.33019908E-07 8.46327543E-07-0.00000000E+00-0.00000000E+00-2.04222394E-06
 4 50 1.41902654E-06 6.23197397E-07-2.00951461E-06-2.13240575E-11 1.38708133E-11
 4 51-1.91363568E-07 1.07750567E-06 1.13508383E-11-1.38961000E-06-0.00000000E+00
 4 52-7.06412931E-09-1.79639347E-11 2.63805297E-07-5.60155505E-08-0.00000000E+00
 4 53-1.97306284E-06 1.55841320E-06 2.53000190E-04-5.04637992E-04 1.53336443E-06
 4 54-1.79988884E-06-0.00000000E+00-5.50755578E-05-9.30827614E-06-0.00000000E+00
 4 55 9.83193724E-05 3.11348988E-06-2.72663603E-11 1.14834342E-05-5.17126214E-06
 4 56-6.31217211E-06 4.38404925E-07-0.00000000E+00-0.00000000E+00-1.80713922E-05
 4 57 6.25908897E-06 1.18123032E-05-1.47317322E-06 1.36960847E-11-0.00000000E+00
 4 58 5.13606184E-08-4.86208419E-07 1.72732027E-11 7.90447345E-07-2.50253101E-11
 4 59 1.51178031E-06-0.00000000E+00-1.58068781E-06-1.38130300E-07-0.00000000E+00
 4 60 1.96892125E-11-2.52405156E-11 5.99804633E-10 7.18864582E-10 6.86859424E-07
 4 61-4.38388453E-07-0.00000000E+00 1.81936690E-05-1.16123922E-05-1.30536011E-10
 4 62-2.08165101E-06 1.32871571E-06 9.96333809E-10-2.37861061E-06 2.37857636E-06
 4 63 3.76530538E-11-1.75303998E-06 3.06709200E-06-1.95762715E-06-8.29810960E-06
 4 64 8.29776279E-06 3.48711900E-10-6.11566763E-06-3.03478877E-05 1.93700638E-05
 4 65-2.83716920E-05 1.81087037E-05-8.09774163E-11 8.09845189E-06-9.86264628E-06
 4 66-1.26882317E-05 9.86275701E-06 5.07528509E-05-3.23938273E-05-7.26888189E-06
 4 67 3.32845338E-11-0.00000000E+00-6.59124329E-10 2.57841585E-09 6.86850525E-07
 4 68-4.38391744E-07 4.74832849E-11 1.81936656E-05-1.16124035E-05-8.62944422E-11
 4 69-2.08174821E-06 1.32870771E-06-3.55220939E-09-2.37859260E-06 2.37858554E-06