 !#############################################################################
 !                   D_3h RHF GEOMETRY OPTIMIZATION AND HESSIAN TEMPLATE
 ! ---------------------------------------------------------------------------
 ! Replace the symmetry-correct coordinates, should only be two atoms.  
 ! The hydrogen or fluorine should have only one non-zero x,y,z coordinate.
 ! 
 ! Basis set?   gbasis=ccd for 2nd row, 
 !                         cct 3rd/4th,
 !                   SPKrTZP for heavy,
 !                   SPKrTZC beyond 4th
 ! 
 !#############################################################################
 $system kdiag=3 mwords=800 memddi=15000 parall=.t. $end
 $contrl runtyp=energy ispher=1 $end
 $contrl icut=9 itol=20 inttyp=rysquad qmttol=1.0d-05 nosym=1 $end
 $contrl scftyp=mcscf  mult=3 maxit=200 icharg=0 mplevl=2 $end
 $scf    npunch=2 conv=1.0d-06 dirscf=.t. $end
 $force  method=seminum $end
 $trans  dirtrf=.t. $end
 $statpt hssend=.t. $end
 $basis  gbasis=SPKrTZP $end
 !#############################################################################
 !
 !                       TURN ON THIS SECTION IF HEAVY ATOM
 !
 !#############################################################################
 !
 $contrl relwfn=LUT-IOTC $end
 $scf  diis=.t. soscf=.f. ethrsh=10.0 $end
 -guess iorder(43)=44 iorder(44)=43 $end
 $gmcpt nsolut=100 $end
 !
 !#############################################################################
 !
 ! TURN ON THIS SECTION IF GMCPT, CHANGE runtyp=energy, scftyp=mcscf, change nosym=1
 !
 !#############################################################################
 $guess  guess=moread norb=369 purify=.t. norder=1 $end
 $mcscf  cistep=gmcci fullnr=.t. finci=mos
         acurcy=1.d-6 maxit=100 $end
 $mrmp   mrpt=gmcpt rdvecs=.f. $end
 $gmcpt  nmofzc=19 nmodoc=24 nmoact=8 nelact=10 stsym(1)=A
         reftyp=ormas nspace=1 mstart(1)=44 mine(1)=10 maxe(1)=10
         kstate(1)=1,1,1,1,1,1,1,1,1,1,1,1,1,1,1,1,1
         wstate(1)=1,1,1,1,1,1,1,1,1,1,1,1,1,1,1,1,1
         iwgt=0 thrwgt=-1.0 krot=.f. kszdoe=.f. knospn=.t.
         thrde=-1.0 edshft=0.02 maxbas=800 $end
 !#############################################################################
 !
 !             TURN OFF THIS SECTION IF temp.inp, add C1
 !
 !    IF SOC, $transt $end, turn knospn=.t., restart from gmcpt states calc
 !
 !#############################################################################
 $data
 Iron pentacarbonyl optimization
 C1
 FE         26.0  -0.0000000000   0.0000000000   0.0000000000
 C           6.0  -0.8824444078   1.5284385491   0.0000000000
 C           6.0  -0.8824444078  -1.5284385491   0.0000000000
 C           6.0   1.7648888155   0.0000000000   0.0000000000
 O           8.0  -1.4586915946   2.5265279545   0.0000000000
 O           8.0  -1.4586915946  -2.5265279545   0.0000000000
 O           8.0   2.9173831893   0.0000000000   0.0000000000
 C           6.0   0.0000000000   0.0000000000  -1.6781093310
 C           6.0  -0.0000000000   0.0000000000   1.6781093310
 O           8.0  -0.0000000000   0.0000000000  -2.8433375200
 O           8.0  -0.0000000000   0.0000000000   2.8433375200
 $end
Semi-canonical MOs --- generated at Thu Mar 28 16:11:46 2024
 $VEC   
 1  1 9.97431955E-01 1.19144690E-02 3.40729449E-03-7.21165471E-03 2.28999252E-03
 1  2-3.53464360E-03 7.07438190E-04-7.92982685E-05-0.00000000E+00-0.00000000E+00
 1  3-0.00000000E+00-1.64529019E-11-0.00000000E+00-0.00000000E+00 4.44294498E-11
 1  4 3.02177436E-11 3.23756643E-11-1.30998620E-10-9.26492369E-11-3.96623794E-11
 1  5 2.72957630E-10 2.03631022E-10-1.89724107E-11-3.78449356E-10-8.63550503E-10
 1  6 6.60819170E-10 3.85242361E-06 3.85242023E-06-7.70484384E-06-0.00000000E+00
 1  7-0.00000000E+00-0.00000000E+00-1.96160824E-05-1.96159863E-05 3.92320687E-05
 1  8 3.36634261E-11-0.00000000E+00-0.00000000E+00 1.37688109E-04 1.37687687E-04
 1  9-2.75375796E-04-1.59138725E-10 1.54314933E-11-0.00000000E+00-5.11162370E-05
 1 10-5.11155433E-05 1.02231780E-04 2.09008433E-10-2.39412665E-11-0.00000000E+00
 1 11 1.60581041E-05-0.00000000E+00-0.00000000E+00-0.00000000E+00-0.00000000E+00
 1 12-2.15442018E-05-0.00000000E+00-0.00000000E+00-0.00000000E+00-0.00000000E+00
 1 13-1.12988021E-04-0.00000000E+00-0.00000000E+00-0.00000000E+00-0.00000000E+00
 1 14 1.51589378E-04-0.00000000E+00-4.02161696E-11-0.00000000E+00-0.00000000E+00
 1 15-1.77291720E-05-1.77291740E-05-4.72778251E-05-0.00000000E+00-0.00000000E+00
 1 16-0.00000000E+00-0.00000000E+00-0.00000000E+00-0.00000000E+00-1.03811675E-05
 1 17 4.15245879E-05 4.15245914E-05-0.00000000E+00-0.00000000E+00-0.00000000E+00
 1 18-2.96288316E-05-1.94831941E-04 5.33167542E-04 3.67164020E-05-1.47766651E-05
 1 19 2.55939564E-05-0.00000000E+00 1.11880848E-04-1.93783348E-04-0.00000000E+00
 1 20-1.06240425E-04 1.84013876E-04-3.05623345E-11 1.55722296E-06-5.22126870E-06
 1 21 3.66404575E-06 6.77848295E-06-0.00000000E+00-0.00000000E+00-2.59801027E-05
 1 22 1.42291194E-04-1.16311091E-04-1.68270995E-04-0.00000000E+00-0.00000000E+00
 1 23-3.73165558E-05-2.80910438E-05-0.00000000E+00-1.25626929E-05-0.00000000E+00
 1 24 7.90777278E-05-0.00000000E+00-2.90123146E-05 5.02507831E-05-0.00000000E+00
 1 25-2.96288491E-05-1.94832061E-04 5.33168184E-04 3.67155201E-05-1.47766721E-05
 1 26-2.55939591E-05-0.00000000E+00 1.11880822E-04 1.93783304E-04-0.00000000E+00
 1 27-1.06241154E-04-1.84014992E-04-3.05193754E-11 1.55722333E-06-5.22127452E-06
 1 28 3.66405119E-06-6.77848364E-06-0.00000000E+00-0.00000000E+00-2.59801173E-05
 1 29 1.42291286E-04-1.16311169E-04 1.68271133E-04-0.00000000E+00-0.00000000E+00
 1 30-3.73165647E-05 2.80910508E-05-0.00000000E+00 1.25626943E-05-0.00000000E+00
 1 31 7.90777488E-05-0.00000000E+00-2.90123236E-05-5.02507938E-05-0.00000000E+00
 1 32-2.96288123E-05-1.94831718E-04 5.33167805E-04 3.67161459E-05 2.95533605E-05
 1 33-0.00000000E+00-0.00000000E+00-2.23761503E-04-0.00000000E+00-0.00000000E+00
 1 34 2.12481305E-04 7.36225612E-11-3.13540638E-11-8.61043438E-06 4.94641856E-06
 1 35 3.66401582E-06-0.00000000E+00-0.00000000E+00-0.00000000E+00 2.26426543E-04
 1 36-1.10115477E-04-1.16311066E-04-0.00000000E+00-0.00000000E+00-0.00000000E+00
 1 37-8.59716238E-05-0.00000000E+00-0.00000000E+00-0.00000000E+00-0.00000000E+00
 1 38 5.73184668E-05-0.00000000E+00 5.80245702E-05-0.00000000E+00-0.00000000E+00
 1 39-4.64946184E-07 1.68619386E-05 4.94283767E-06-3.68831514E-04-1.19139447E-06
 1 40 2.06355683E-06-0.00000000E+00 2.95711108E-05-5.12187011E-05-0.00000000E+00
 1 41-5.33724594E-05 9.24436195E-05-0.00000000E+00-1.15401556E-06 5.83420010E-06
 1 42-4.68018455E-06-6.98826450E-06-0.00000000E+00-0.00000000E+00-4.21044318E-06
 1 43 1.99911043E-05-1.57806611E-05-2.42014741E-05-0.00000000E+00-0.00000000E+00
 1 44-6.67784449E-06-4.76245995E-06-0.00000000E+00-2.12983172E-06-0.00000000E+00
 1 45 1.38778890E-05-0.00000000E+00-4.91862049E-06 8.51934223E-06-0.00000000E+00
 1 46-4.64941603E-07 1.68619640E-05 4.94276366E-06-3.68832619E-04-1.19139227E-06
 1 47-2.06355530E-06-0.00000000E+00 2.95711015E-05 5.12186947E-05-0.00000000E+00
 1 48-5.33725933E-05-9.24439115E-05-0.00000000E+00-1.15401829E-06 5.83420384E-06
 1 49-4.68018555E-06 6.98826853E-06-0.00000000E+00-0.00000000E+00-4.21043218E-06
 1 50 1.99910882E-05-1.57806560E-05 2.42014662E-05-0.00000000E+00-0.00000000E+00
 1 51-6.67784031E-06 4.76246179E-06-0.00000000E+00 2.12983472E-06-0.00000000E+00
 1 52 1.38778887E-05-0.00000000E+00-4.91862574E-06-8.51934771E-06-0.00000000E+00
 1 53-4.64943868E-07 1.68619044E-05 4.94275984E-06-3.68831890E-04 2.38276214E-06
 1 54-0.00000000E+00-0.00000000E+00-5.91420721E-05-0.00000000E+00-0.00000000E+00
 1 55 1.06744898E-04-2.97112056E-11-0.00000000E+00 9.32834388E-06-4.64816384E-06
 1 56-4.68018004E-06-0.00000000E+00-0.00000000E+00-0.00000000E+00 3.20917091E-05
 1 57-1.63111060E-05-1.57806031E-05-0.00000000E+00-0.00000000E+00-0.00000000E+00
 1 58-1.49266113E-05-0.00000000E+00-0.00000000E+00-0.00000000E+00-0.00000000E+00
 1 59 1.01888923E-05-0.00000000E+00 9.83725824E-06-0.00000000E+00-0.00000000E+00
 1 60-4.49904457E-05-2.53637454E-04 7.75045676E-04-7.75963790E-07-0.00000000E+00
 1 61-0.00000000E+00-2.91967907E-05-0.00000000E+00-0.00000000E+00 3.11391294E-04
 1 62 2.80539269E-11-0.00000000E+00-2.03812918E-04-2.48743091E-06-2.48740397E-06
 1 63 4.97483488E-06-0.00000000E+00-3.55254465E-11-0.00000000E+00-1.76250505E-04
 1 64-1.76250538E-04 3.52501043E-04-0.00000000E+00 5.19838904E-11-0.00000000E+00
 1 65-1.58472904E-07-0.00000000E+00 9.11206921E-05-0.00000000E+00-6.11256014E-05
 1 66 2.12578112E-07-6.11256356E-05 3.69876530E-11-0.00000000E+00-0.00000000E+00
 1 67-4.49904402E-05-2.53637424E-04 7.75045804E-04-7.76445362E-07-0.00000000E+00
 1 68-0.00000000E+00 2.91968045E-05-0.00000000E+00-0.00000000E+00-3.11391470E-04
 1 69 4.33684650E-11-0.00000000E+00 2.03814042E-04-2.48742043E-06-2.48739125E-06
 1 70 4.97481168E-06-0.00000000E+00 3.33783672E-11-0.00000000E+00-1.76250467E-04
 1 71-1.76250500E-04 3.52500967E-04-0.00000000E+00-6.18254712E-11-0.00000000E+00
 1 72-1.58469971E-07-0.00000000E+00-9.11207522E-05-0.00000000E+00 6.11256414E-05
 1 73 2.12578941E-07 6.11256763E-05 3.21970035E-11-0.00000000E+00-0.00000000E+00
 1 74 7.44297976E-07 2.34540621E-05-8.78137010E-05-3.80318049E-04-0.00000000E+00
 1 75-0.00000000E+00-3.24578721E-06-2.12336951E-11-0.00000000E+00 4.79822825E-05
 1 76 2.87372859E-11-0.00000000E+00-1.24300263E-04-3.44469188E-06-3.44468745E-06
 1 77 6.88937933E-06-0.00000000E+00-0.00000000E+00-0.00000000E+00-2.07209365E-05
 1 78-2.07209162E-05 4.14418527E-05-0.00000000E+00-0.00000000E+00-0.00000000E+00
 1 79-1.35785756E-07-0.00000000E+00 1.62379679E-05-0.00000000E+00-1.08927641E-05
 1 80 1.82176309E-07-1.08927560E-05-0.00000000E+00-0.00000000E+00-0.00000000E+00
 1 81 7.44284536E-07 2.34539824E-05-8.78132000E-05-3.80319213E-04-0.00000000E+00
 1 82-0.00000000E+00 3.24580811E-06-0.00000000E+00-0.00000000E+00-4.79824240E-05
 1 83 3.07447030E-11-0.00000000E+00 1.24300564E-04-3.44470326E-06-3.44469710E-06
 1 84 6.88940036E-06-0.00000000E+00-0.00000000E+00-0.00000000E+00-2.07209323E-05
 1 85-2.07209099E-05 4.14418423E-05-0.00000000E+00-0.00000000E+00-0.00000000E+00
 1 86-1.35785803E-07-0.00000000E+00-1.62379670E-05-0.00000000E+00 1.08927597E-05
 1 87 1.82176161E-07 1.08927591E-05-0.00000000E+00-0.00000000E+00-0.00000000E+00
 2  1-3.20552398E-01 1.04843880E+00 2.74244513E-02-1.42616795E-02 4.31378422E-03
 2  2-1.08045812E-02 2.49535553E-03-2.45491103E-04-2.50310412E-10-2.78213898E-11
 2  3-6.74034829E-11-0.00000000E+00-0.00000000E+00-1.43087604E-11-1.80109314E-10
 2  4-8.53963147E-11 8.00733161E-11 4.92949398E-10 3.10238366E-10-2.37078434E-10
 2  5-4.98387668E-10-6.71644897E-10 4.62144188E-10-3.65972736E-09 2.45571075E-10
 2  6-2.59605799E-09-3.49917847E-04-3.49917863E-04 6.99835710E-04 3.76553197E-11
 2  7 1.74340698E-11-0.00000000E+00-2.81023952E-04-2.81023728E-04 5.62047680E-04
 2  8-3.32698741E-11-3.65975512E-11-0.00000000E+00 7.07722727E-04 7.07721712E-04
 2  9-1.41544444E-03 2.60010410E-10 1.25825361E-10-0.00000000E+00-6.73012242E-04
 2 10-6.73009522E-04 1.34602176E-03-1.49311890E-10-2.00074174E-10 1.44029796E-11
 2 11 6.68473006E-05-0.00000000E+00-0.00000000E+00-0.00000000E+00-0.00000000E+00
 2 12-8.96850523E-05-0.00000000E+00-1.37370584E-11-0.00000000E+00-0.00000000E+00
 2 13-4.20238750E-04-2.35085719E-11-0.00000000E+00-0.00000000E+00-0.00000000E+00
 2 14 5.63809362E-04-0.00000000E+00 8.95252861E-11 3.17746674E-11-0.00000000E+00
 2 15-6.39992709E-05-6.39992137E-05-1.70664553E-04-0.00000000E+00-0.00000000E+00
 2 16-0.00000000E+00-0.00000000E+00-0.00000000E+00-0.00000000E+00-3.74740369E-05
 2 17 1.49896445E-04 1.49896344E-04-0.00000000E+00-0.00000000E+00-0.00000000E+00
 2 18 1.28098324E-04-9.83806825E-04 8.66460811E-04-4.45764673E-05-2.16501204E-04
 2 19 3.74991213E-04-0.00000000E+00 2.29399947E-04-3.97332303E-04 1.29031711E-11
 2 20-3.09039169E-04 5.35271694E-04-7.28032693E-11 2.74478613E-07-1.81729768E-05
 2 21 1.78984982E-05 1.84474454E-05-0.00000000E+00-0.00000000E+00-7.49077138E-05
 2 22 4.11596752E-04-3.36689039E-04-4.86504134E-04-0.00000000E+00 3.21042947E-11
 2 23-1.34194753E-04-9.86251027E-05-0.00000000E+00-4.41064912E-05-0.00000000E+00
 2 24 2.81900694E-04-0.00000000E+00-1.01859540E-04 1.76425952E-04-0.00000000E+00
 2 25 1.28098331E-04-9.83806624E-04 8.66460469E-04-4.45769448E-05-2.16501178E-04
 2 26-3.74991177E-04-0.00000000E+00 2.29399884E-04 3.97332150E-04 1.59411042E-11
 2 27-3.09039245E-04-5.35271948E-04-7.18245856E-11 2.74457169E-07-1.81729416E-05
 2 28 1.78984844E-05-1.84474266E-05-0.00000000E+00-0.00000000E+00-7.49076708E-05
 2 29 4.11596519E-04-3.36688848E-04 4.86503757E-04-0.00000000E+00-2.91315379E-11
 2 30-1.34194709E-04 9.86250688E-05-0.00000000E+00 4.41065010E-05-0.00000000E+00
 2 31 2.81900623E-04-0.00000000E+00-1.01859528E-04-1.76425916E-04-0.00000000E+00
 2 32 1.28098379E-04-9.83806570E-04 8.66456897E-04-4.45732795E-05 4.33002618E-04
 2 33-0.00000000E+00-1.14174728E-11-4.58802329E-04-4.01248398E-11 2.12565997E-11
 2 34 6.18072693E-04-4.92713157E-11-5.60887374E-11-2.73969711E-05 9.49834052E-06
 2 35 1.78986306E-05-1.82502463E-11-0.00000000E+00-0.00000000E+00 6.54847682E-04
 2 36-3.18159205E-04-3.36688477E-04-4.17455962E-11-0.00000000E+00-0.00000000E+00
 2 37-3.05018701E-04-0.00000000E+00-0.00000000E+00-1.21727842E-11-0.00000000E+00
 2 38 2.05506241E-04-0.00000000E+00 2.03719289E-04-0.00000000E+00-0.00000000E+00
 2 39-3.59560298E-05 1.05871258E-04 2.11443513E-04-9.17368383E-04 5.75011345E-05
 2 40-9.95946790E-05-0.00000000E+00 1.97869887E-04-3.42720445E-04-0.00000000E+00
 2 41-6.82769417E-05 1.18259080E-04 1.11692154E-11-4.83039243E-06 2.58815708E-05
 2 42-2.10511783E-05-3.07120194E-05-0.00000000E+00-0.00000000E+00-1.84359549E-05
 2 43 8.07456336E-05-6.23096786E-05-9.91815926E-05-0.00000000E+00-0.00000000E+00
 2 44-2.40921260E-05-1.64248452E-05-0.00000000E+00-7.34539067E-06-0.00000000E+00
 2 45 4.92864740E-05-0.00000000E+00-1.69634952E-05 2.93816329E-05-0.00000000E+00
 2 46-3.59560456E-05 1.05871292E-04 2.11443556E-04-9.17368087E-04 5.75011314E-05
 2 47 9.95946661E-05-0.00000000E+00 1.97869856E-04 3.42720439E-04-0.00000000E+00
 2 48-6.82769424E-05-1.18258963E-04 1.11581054E-11-4.83037767E-06 2.58815606E-05
 2 49-2.10511829E-05 3.07120173E-05-0.00000000E+00-0.00000000E+00-1.84359973E-05
 2 50 8.07456475E-05-6.23096502E-05 9.91815466E-05-0.00000000E+00-0.00000000E+00
 2 51-2.40921329E-05 1.64248533E-05-0.00000000E+00 7.34537115E-06-0.00000000E+00
 2 52 4.92864767E-05-0.00000000E+00-1.69634886E-05-2.93816243E-05-0.00000000E+00
 2 53-3.59561164E-05 1.05871117E-04 2.11445453E-04-9.17362560E-04-1.15001848E-04
 2 54-0.00000000E+00-0.00000000E+00-3.95740528E-04 1.70518949E-11-0.00000000E+00
 2 55 1.36551838E-04 4.60901130E-11 2.35871687E-11 4.12375858E-05-2.01864138E-05
 2 56-2.10511720E-05-0.00000000E+00-0.00000000E+00-0.00000000E+00 1.30336854E-04
 2 57-6.80269753E-05-6.23098786E-05-4.36687167E-11-0.00000000E+00-0.00000000E+00
 2 58-5.25407596E-05-1.15122616E-11-0.00000000E+00 1.52849907E-11-0.00000000E+00
 2 59 3.65638414E-05-0.00000000E+00 3.39269847E-05-0.00000000E+00-0.00000000E+00
 2 60-4.77407862E-04-3.17508892E-04 3.21749734E-03 1.78375153E-04-2.23603194E-11
 2 61-0.00000000E+00 3.39802707E-04-0.00000000E+00 1.01377340E-11 1.78223407E-03
 2 62-7.31896026E-11-9.93790925E-11-7.18980832E-04-1.14140184E-05-1.14140596E-05
 2 63 2.28280780E-05-0.00000000E+00-0.00000000E+00-0.00000000E+00-6.09830299E-04
 2 64-6.09830197E-04 1.21966050E-03 2.51069427E-11 2.09495007E-11-2.82453631E-11
 2 65 1.76926507E-06-0.00000000E+00 4.27366957E-04-0.00000000E+00-2.86686447E-04
 2 66-2.37373253E-06-2.86686494E-04 1.69220047E-11-0.00000000E+00-0.00000000E+00
 2 67-4.77407833E-04-3.17508759E-04 3.21749523E-03 1.78378092E-04-3.40363324E-11
 2 68-0.00000000E+00-3.39802702E-04 3.26993672E-11-0.00000000E+00-1.78223460E-03
 2 69 3.06535523E-11-1.07129708E-10 7.18976801E-04-1.14139919E-05-1.14140235E-05
 2 70 2.28280154E-05-0.00000000E+00 2.73547009E-11-0.00000000E+00-6.09830021E-04
 2 71-6.09829899E-04 1.21965992E-03 2.50196768E-11-7.36415681E-11 3.19853569E-11
 2 72 1.76928417E-06-0.00000000E+00-4.27367029E-04-0.00000000E+00 2.86686492E-04
 2 73-2.37373971E-06 2.86686545E-04-0.00000000E+00 1.11404786E-11-0.00000000E+00
 2 74 4.52684331E-05 1.42528332E-05-2.10989910E-04-1.48312164E-03 1.02818332E-11
 2 75-0.00000000E+00-2.03794936E-04-8.03872155E-11-1.38779680E-11 1.94114607E-05
 2 76 3.76242803E-11-0.00000000E+00-5.99169233E-04-1.13912648E-05-1.13912351E-05
 2 77 2.27824999E-05-0.00000000E+00-0.00000000E+00-0.00000000E+00-6.84509816E-05
 2 78-6.84509869E-05 1.36901968E-04-0.00000000E+00-0.00000000E+00-1.60736922E-11
 2 79-7.77867600E-07-0.00000000E+00 4.99657891E-05-0.00000000E+00-3.35180540E-05
 2 80 1.04362154E-06-3.35180867E-05-0.00000000E+00-0.00000000E+00-0.00000000E+00
 2 81 4.52684188E-05 1.42527673E-05-2.10989311E-04-1.48311826E-03-0.00000000E+00
 2 82-0.00000000E+00 2.03794975E-04-5.34868622E-11-1.47775299E-11-1.94116761E-05
 2 83-0.00000000E+00-0.00000000E+00 5.99168059E-04-1.13912563E-05-1.13912409E-05
 2 84 2.27824972E-05-0.00000000E+00-0.00000000E+00-0.00000000E+00-6.84510660E-05
 2 85-6.84510679E-05 1.36902134E-04-0.00000000E+00-3.62817979E-11 1.73763652E-11
 2 86-7.77870184E-07-0.00000000E+00-4.99658141E-05-0.00000000E+00 3.35180580E-05
 2 87 1.04362450E-06 3.35181161E-05-0.00000000E+00-0.00000000E+00-0.00000000E+00
 3  1-1.71988912E-11-1.33758876E-11-1.31507909E-10 9.41419759E-11 1.18185849E-10
 3  2 1.40399209E-10-1.89199024E-09-1.32745236E-10 1.50505421E-02 9.97298296E-01
 3  3 1.11021807E-07 8.88837418E-06 5.88972960E-04 5.40926477E-11 1.36475502E-04
 3  4 9.04331554E-03 1.01209450E-09-3.73242641E-05-2.47323053E-03-2.55102112E-10
 3  5 1.59617286E-05 1.05767924E-03 3.95270070E-11 1.14156281E-05 7.56427504E-04
 3  6-5.82963102E-10-1.10660608E-06 1.10662551E-06-1.96081955E-11 8.46706553E-05
 3  7 0.00000000E+00-2.00213240E-11 2.40497499E-06-2.40495527E-06-1.99121237E-11
 3  8-1.84012796E-04 0.00000000E+00 0.00000000E+00-6.56203916E-06 6.56182167E-06
 3  9 2.17546328E-10 5.02082703E-04 0.00000000E+00 0.00000000E+00 8.29612515E-06
 3 10-8.29581570E-06-3.09440844E-10-6.34761356E-04 0.00000000E+00-6.28293817E-11
 3 11 6.62765240E-07 4.39161447E-05 0.00000000E+00 1.96398906E-05 0.00000000E+00
 3 12 2.96389098E-07 0.00000000E+00-1.18558198E-06-7.85595815E-05-1.15349586E-11
 3 13-1.04153460E-06-6.90158683E-05-2.12730699E-11-3.08648153E-05 1.41082919E-11
 3 14-4.65763121E-07 1.44318906E-11 1.86312842E-06 1.23459319E-04 0.00000000E+00
 3 15-2.18720460E-07-6.93848102E-08 0.00000000E+00-1.06918662E-05 0.00000000E+00
 3 16 1.81720994E-05 0.00000000E+00 0.00000000E+00 0.00000000E+00 2.53047354E-07
 3 17 1.31161409E-07-1.31164599E-07 0.00000000E+00 0.00000000E+00-1.00357859E-05
 3 18-7.95370681E-06-3.56941854E-05-9.20983805E-05-3.78110595E-04-1.30374477E-05
 3 19 2.72672236E-05 0.00000000E+00 8.24111726E-05-1.25664518E-04-1.79212218E-11
 3 20-2.91936880E-04 5.46574573E-04 4.41573025E-11-5.70900289E-07 4.95289052E-06
 3 21-4.38199024E-06-4.26907034E-06 0.00000000E+00-2.62623044E-11 7.81389918E-06
 3 22-1.84848518E-05 1.06709526E-05 1.64718406E-05 2.62535774E-11-1.26081270E-11
 3 23-4.78711256E-05-3.76143320E-05 1.09718698E-11-2.03883017E-05 0.00000000E+00
 3 24 1.06017049E-04-1.24205884E-11-4.17911944E-05 7.08532237E-05 1.81286925E-11
 3 25 8.09348525E-06 3.63214749E-05 9.37179821E-05 3.84757996E-04 1.34056867E-05
 3 26 2.76662863E-05 0.00000000E+00-8.33532195E-05-1.28166056E-04 0.00000000E+00
 3 27 2.98283534E-04 5.55482338E-04 5.52201746E-11 5.48709769E-07-5.00774255E-06
 3 28 4.45903278E-06-4.36560767E-06 0.00000000E+00-3.04381284E-11-7.69875532E-06
 3 29 1.85574127E-05-1.08586574E-05 1.69299133E-05-1.36350244E-11 0.00000000E+00
 3 30 4.87380604E-05-3.84268622E-05 0.00000000E+00-2.05699658E-05 0.00000000E+00
 3 31-1.07869369E-04 0.00000000E+00 4.24803991E-05 7.21250114E-05 0.00000000E+00
 3 32-1.39839761E-07-6.27575911E-07-1.61832184E-06-6.64678090E-06 5.29703933E-07
 3 33 4.56620490E-06 0.00000000E+00-2.63735254E-06 1.66409578E-05-1.86370905E-11
 3 34 1.08870674E-05 3.98824723E-05 4.78717805E-11 1.19089733E-07-4.20487667E-08
 3 35-7.70409660E-08 1.22267792E-06 0.00000000E+00 0.00000000E+00-4.26383154E-07
 3 36 2.38885910E-07 1.87497244E-07-9.57652101E-06 0.00000000E+00 0.00000000E+00
 3 37-2.06054183E-06-3.05189494E-06 0.00000000E+00 5.58678193E-06 0.00000000E+00
 3 38 1.31853047E-06 0.00000000E+00 1.44597649E-06-1.49223520E-06 0.00000000E+00
 3 39-2.34468187E-06 9.96441634E-06 2.48383654E-04-5.02930810E-04-2.26506645E-06
 3 40 3.51768154E-06-1.28943605E-11 4.98742862E-05-8.54306478E-05 2.43271367E-11
 3 41-5.99048816E-05 8.77528401E-05 2.51956228E-11-1.80475059E-06 9.12187275E-06
 3 42-7.31712216E-06-1.18567972E-05 0.00000000E+00 0.00000000E+00-2.90991377E-06
 3 43 7.81176543E-06-4.90185166E-06-2.57643483E-06 0.00000000E+00-3.56061340E-11
 3 44-2.20499427E-06-3.39265036E-06 0.00000000E+00-5.49077426E-08 0.00000000E+00
 3 45 5.30885349E-06 0.00000000E+00-2.35054324E-06 4.60662584E-06 1.49211766E-11
 3 46 2.38589799E-06-1.01395626E-05-2.52750217E-04 5.11772078E-04 2.29283086E-06
 3 47 3.58647391E-06 0.00000000E+00-5.07227367E-05-8.69488179E-05 0.00000000E+00
 3 48 6.04830081E-05 8.95696010E-05-4.90696215E-11 1.86036745E-06-9.30612645E-06
 3 49 7.44575901E-06-1.20493071E-05 0.00000000E+00 0.00000000E+00 2.75177471E-06
 3 50-7.73979432E-06 4.98801961E-06-2.76124722E-06 0.00000000E+00-2.92497552E-11
 3 51 2.23487787E-06-3.39114211E-06 0.00000000E+00-1.28733033E-07 0.00000000E+00
 3 52-5.40613773E-06 0.00000000E+00 2.40773442E-06 4.67842760E-06 1.43619306E-11
 3 53-4.12137080E-08 1.75196032E-07 4.36615298E-06-8.84139250E-06 7.34608673E-08
 3 54-3.95389467E-07 0.00000000E+00-1.73889340E-06 9.29667075E-07 0.00000000E+00
 3 55 1.86268471E-06-1.55980236E-05 0.00000000E+00 2.68656507E-07-1.40028588E-07
 3 56-1.28627919E-07-9.06521745E-07 0.00000000E+00 0.00000000E+00 1.24131413E-07
 3 57-3.79890987E-08-8.61423265E-08 7.93786981E-06 0.00000000E+00 0.00000000E+00
 3 58-1.12615468E-07 1.30162296E-06 0.00000000E+00-2.26804274E-06 0.00000000E+00
 3 59 6.03047767E-08 0.00000000E+00 9.07847289E-08 5.21732296E-07 0.00000000E+00
 3 60 0.00000000E+00 2.79273550E-11 1.04765132E-10 8.46165603E-11 2.10912581E-07
 3 61 1.39758970E-05 0.00000000E+00-4.66115805E-07-3.08855996E-05-4.66289273E-11
 3 62-1.22959660E-07-8.14963804E-06-1.32926521E-10-2.74871739E-08 2.75090169E-08
 3 63-2.17092174E-11 2.10314421E-06 5.20868929E-08 3.45238921E-06-9.24865582E-08
 3 64 9.25197851E-08-3.31878259E-11 7.07802710E-06-1.12563447E-06-7.45905809E-05
 3 65 5.59251994E-08 3.70565530E-06-3.59033246E-11 1.65723613E-06-7.02629266E-08
 3 66 2.50194312E-08 7.03112038E-08-1.00050960E-07-6.62889442E-06 5.37713029E-06
 3 67 2.11737579E-11-2.28500254E-11 2.52310838E-10 4.96544891E-10 2.10914366E-07
 3 68 1.39759041E-05 3.77800275E-11-4.66109737E-07-3.08855994E-05-1.26001490E-10
 3 69-1.22964563E-07-8.14962119E-06-4.82585328E-10-2.74780054E-08 2.74765673E-08
 3 70 0.00000000E+00 2.10313489E-06-5.21205161E-08-3.45238036E-06-9.24817597E-08
 3 71 9.25115533E-08-2.97565600E-11 7.07806785E-06 1.12563907E-06 7.45906032E-05
 3 72 5.59203729E-08 3.70565264E-06 0.00000000E+00 1.65721572E-06 7.02862583E-08
 3 73 2.50090219E-08-7.02762098E-08-1.00034075E-07-6.62887045E-06-5.37712015E-06
 3 74-1.12835458E-11 0.00000000E+00 4.71548467E-11-2.38130975E-10 2.09383907E-08
 3 75 1.38766329E-06 0.00000000E+00-1.90927114E-07-1.26521242E-05 1.67093041E-11
 3 76-3.70287146E-07-2.45369647E-05-8.59532268E-11-8.03834800E-09 8.04022322E-09
 3 77 0.00000000E+00 6.15736919E-07 4.63501570E-08 3.07143520E-06 2.29143176E-08
 3 78-2.29090451E-08 0.00000000E+00-1.75319864E-06-1.98733239E-07-1.31700986E-05
 3 79-2.13964271E-08-1.41795719E-06 0.00000000E+00-6.34125841E-07-1.42357595E-09
 3 80-9.57880145E-09 1.42832249E-09 3.82851208E-08 2.53651503E-06 1.08414770E-07
 3 81 4.32333300E-11 0.00000000E+00 1.01797742E-10 1.52744073E-10 2.09436445E-08
 3 82 1.38766035E-06 0.00000000E+00-1.90927711E-07-1.26521176E-05-4.55089082E-11
 3 83-3.70289985E-07-2.45369759E-05-1.09421762E-11-8.04187706E-09 8.03569309E-09
 3 84 0.00000000E+00 6.15774258E-07-4.63480669E-08-3.07143164E-06 2.28999801E-08
 3 85-2.28951732E-08 0.00000000E+00-1.75323478E-06 1.98733201E-07 1.31701149E-05
 3 86-2.13969339E-08-1.41795870E-06 0.00000000E+00-6.34113282E-07 1.41926826E-09
 3 87-9.57968939E-09-1.41819983E-09 3.82866887E-08 2.53650451E-06-1.08417738E-07
 4  1-8.92482304E-11 2.72720627E-10-1.01542214E-10 9.12688484E-11-3.43453043E-10
 4  2 1.04801388E-09-5.77941526E-09-3.67557153E-10 9.97298296E-01-1.50505421E-02
 4  3 1.97564665E-08 5.88972919E-04-8.88837304E-06 0.00000000E+00 9.04331572E-03
 4  4-1.36475504E-04 2.49491501E-10-2.47323079E-03 3.73242705E-05-1.96503887E-10
 4  5 1.05767962E-03-1.59617471E-05 3.34753138E-10 7.56430111E-04-1.14154627E-05
 4  6-1.90069774E-09-7.33269685E-05 7.33269317E-05 2.61578866E-11-1.27781001E-06
 4  7-3.64030331E-11 0.00000000E+00 1.59359936E-04-1.59359745E-04-2.01651373E-10
 4  8 2.77701294E-06 0.00000000E+00 0.00000000E+00-4.34817318E-04 4.34816115E-04
 4  9 1.20602698E-09-7.57704508E-06 0.00000000E+00 0.00000000E+00 5.49720964E-04
 4 10-5.49718882E-04-2.07957045E-09 9.57933242E-06 2.66239698E-11 0.00000000E+00
 4 11 4.39161621E-05-6.62758260E-07 0.00000000E+00-2.96397794E-07 1.30152445E-11
 4 12 1.96398781E-05 0.00000000E+00-7.85595923E-05 1.18558131E-06 0.00000000E+00
 4 13-6.90160594E-05 1.04151003E-06 0.00000000E+00 4.65794749E-07 0.00000000E+00
 4 14-3.08646639E-05 0.00000000E+00 1.23459424E-04-1.86312708E-06 0.00000000E+00
 4 15-1.44936282E-05-4.59817541E-06-4.11831378E-11 1.61343659E-07 0.00000000E+00
 4 16-2.74232864E-07 0.00000000E+00 0.00000000E+00 0.00000000E+00 1.67684912E-05
 4 17 8.69130783E-06-8.69124372E-06 0.00000000E+00 0.00000000E+00 1.51456762E-07
 4 18 4.75356223E-06 2.13324010E-05 5.50425050E-05 2.25977901E-04 1.23992388E-05
 4 19-1.36361718E-05-1.97972235E-11-3.24620188E-05 8.47973476E-05 2.15611675E-11
 4 20 2.14718264E-04-3.03426711E-04 0.00000000E+00-7.27283328E-07-1.89163226E-06
 4 21 2.61891558E-06 3.26370233E-06 0.00000000E+00 0.00000000E+00 3.69842771E-06
 4 22 2.67918028E-06-6.37760798E-06-1.54233636E-05-1.39963562E-11 0.00000000E+00
 4 23 2.94517974E-05 2.74938176E-05 0.00000000E+00 6.32782629E-06 2.00414256E-11
 4 24-6.29845064E-05-1.88254882E-11 2.34707737E-05-4.32146533E-05 0.00000000E+00
 4 25 4.51139002E-06 2.02455897E-05 5.22385855E-05 2.14465154E-04 1.20001757E-05
 4 26 1.28071519E-05-1.87089330E-11-2.99604756E-05-8.09668203E-05 1.83619362E-11
 4 27 2.05810985E-04 2.86795118E-04 0.00000000E+00-7.44144934E-07-1.74133165E-06
 4 28 2.48547658E-06-3.13335853E-06 0.00000000E+00 0.00000000E+00 3.93252340E-06
 4 29 2.12019296E-06-6.05271636E-06 1.49192935E-05 0.00000000E+00 0.00000000E+00
 4 30 2.79938432E-05-2.63462710E-05 0.00000000E+00-5.70971238E-06 1.99626191E-11
 4 31-5.97566770E-05-1.80393366E-11 2.21989952E-05 4.10569441E-05 0.00000000E+00
 4 32-9.26469326E-06-4.15783287E-05-1.07284339E-04-4.40444683E-04 3.51002698E-05
 4 33-6.89254620E-08 1.55565334E-11-1.74770336E-04-2.51099231E-07 0.00000000E+00
 4 34 7.21413128E-04-6.01907202E-07 0.00000000E+00 7.88997794E-06-2.78584704E-06
 4 35-5.10413090E-06-1.84570629E-08 2.00458078E-11 0.00000000E+00-2.82655586E-05
 4 36 1.58347788E-05 1.24307799E-05 1.44532327E-07 4.36027008E-11 0.00000000E+00
 4 37-1.36539392E-04 4.60527524E-08 0.00000000E+00-8.43136539E-08 1.17425788E-11
 4 38 8.73701789E-05-1.33291872E-11 9.58166385E-05 2.25274029E-08 0.00000000E+00
 4 39 1.40132099E-06-5.95513228E-06-1.48446340E-04 3.00576806E-04 9.54682128E-07
 4 40-2.33256655E-06 0.00000000E+00-2.88694210E-05 5.15992456E-05 0.00000000E+00
 4 41 2.00635196E-05-6.15321366E-05-1.48872267E-11 1.87074015E-06-6.24379203E-06
 4 42 4.37305189E-06 6.55811762E-06 0.00000000E+00 1.59545278E-11-5.19724655E-06
 4 43 2.26763993E-06 2.92960662E-06 6.16402657E-06-2.26625863E-11 0.00000000E+00
 4 44 1.02353194E-06 1.34268495E-09 0.00000000E+00 2.44740273E-06 0.00000000E+00
 4 45-3.30444736E-06 0.00000000E+00 1.93123517E-06-2.44920414E-06 0.00000000E+00
 4 46 1.32993362E-06-5.65172177E-06-1.40883666E-04 2.85263391E-04 8.85876481E-07
 4 47 2.22537129E-06 0.00000000E+00-2.73512933E-05-4.89978655E-05 0.00000000E+00
 4 48 1.82466486E-05 5.88560106E-05 0.00000000E+00 1.81543548E-06-5.96569398E-06
 4 49 4.15025850E-06-6.19734011E-06 0.00000000E+00-1.37403059E-11-5.28268212E-06
 4 50 2.50229954E-06 2.78038258E-06-6.08349572E-06-2.17504044E-11 0.00000000E+00
 4 51 9.56522360E-07 1.01011993E-07 0.00000000E+00-2.44461499E-06 0.00000000E+00
 4 52-3.14274369E-06 0.00000000E+00 1.85943428E-06 2.30909318E-06 0.00000000E+00
 4 53-2.73131915E-06 1.16066565E-05 2.89333876E-04-5.85839823E-04 4.86832031E-06
 4 54 5.96548091E-09-1.78833312E-11-1.15231189E-04-1.40311293E-08 1.77935404E-11
 4 55 1.23413814E-04 2.35396937E-07-4.28318020E-11 1.78023068E-05-9.27887941E-06
 4 56-8.52342736E-06 1.36665678E-08 0.00000000E+00 0.00000000E+00 8.22858227E-06
 4 57-2.51844727E-06-5.71013500E-06-1.19780776E-07 2.82208237E-11 0.00000000E+00
 4 58-7.46230495E-06-1.96556829E-08 2.17342415E-11 3.42364088E-08-4.24792297E-11
 4 59 3.99553963E-06 1.33196848E-11 6.01619306E-06-7.86554295E-09 0.00000000E+00
 4 60-3.57077450E-11 8.80097601E-11 4.36895347E-10 1.29443537E-09 1.39758940E-05
 4 61-2.10911899E-07 5.08731957E-11-3.08855867E-05 4.66109670E-07 1.72120922E-10
 4 62-8.14958779E-06 1.22970513E-07 1.95069174E-09-1.82138628E-06 1.82138338E-06
 4 63 0.00000000E+00-3.17297421E-08 3.45236435E-06-5.21018553E-08-6.12983446E-06
 4 64 6.12956603E-06 2.70679712E-10-1.06828944E-07-7.45905298E-05 1.12563777E-06
 4 65 3.70569988E-06-5.59314298E-08-8.49541737E-11-2.50016068E-08-4.65665908E-06
 4 66 1.65719701E-06 4.65677558E-06-6.62891511E-06 1.00041494E-07-8.11519102E-08
 4 67-1.09457271E-11 1.66833451E-10-6.79304244E-10 3.30894362E-09 1.39759067E-05
 4 68-2.10914086E-07-5.08324969E-11-3.08856216E-05 4.66112769E-07-3.77546822E-10
 4 69-8.14964913E-06 1.22956495E-07-4.66653392E-09-1.82136896E-06 1.82137922E-06