 !Step 5: Diabatization of the H2O+ adiabats at the structure deviating
 !        from the MP2 optimized H2O structure with the O atom being moved
 !        by +0.1 Angstrom along the x axis. Everything is identical to
 !        Step 4 except the different coordinates. The Diab-to-Adiab
 !        transformation is non-trivial. Check the output and you will
 !        see the Diabs 2 and 3 are coupled, because they are both
 !        A' state in the Cs distorted symmetry, while Diab1 is a A"
 !        state.
 $system kdiag=3 mwords=100 memddi=1000 parall=.t. $end
 $contrl runtyp=energy ispher=1 $end
 $contrl icut=9 itol=20 inttyp=rysquad qmttol=1.0d-05 nosym=1 $end
 $scf    npunch=2 conv=1.0d-06 dirscf=.t.      $end
 $contrl scftyp=mcscf  mult=2 maxit=200 icharg=1 mplevl=2 $end
 $guess  guess=moread norb=58 purify=.t. $end
 $basis  gbasis=cct $end
 $mcscf  cistep=gmcci fullnr=.t. finci=mos
         acurcy=1.d-6 maxit=100 $end
 $trans  dirtrf=.t. $end
 $mrmp   mrpt=gmcpt rdvecs=.f. $end
 $gmcpt  nmofzc=0 nmodoc=1 nmoact=6 nelact=7 stsym(1)=A
         reftyp=ormas nspace=1 mstart(1)=2 mine(1)=7 maxe(1)=7
         kstate(1)=1,1,1
         wstate(1)=1,1,1
         iwgt=0 thrwgt=-1.0 krot=.f. kszdoe=.f. knospn=.f.
         thrde=-1.0 edshft=0.02 $end
 $data
 H2O+ 5 states calculation at H2O structure.
 c1
 O           8.0   0.1000000000   0.0000000000  -0.2624774504
 H           1.0  -0.7532437773   0.0000000000   0.3312387252
 H           1.0   0.7532437773   0.0000000000   0.3312387252
 $end
--- OPTIMIZED RHF      MO-S --- GENERATED AT Wed May 25 12:32:31 2022
E=      -76.3186577307, E(NUC)=    9.1791516524
 $VEC   
 1  1 9.75874809E-01-6.05654872E-04 4.35010822E-02 1.21145667E-03 0.00000000E+00
 1  2 0.00000000E+00 1.90103403E-03 0.00000000E+00 0.00000000E+00-1.49902877E-03
 1  3 0.00000000E+00 0.00000000E+00-1.49092933E-04 2.68886215E-05-5.11901877E-05
 1  4 2.43015662E-05 0.00000000E+00 0.00000000E+00 0.00000000E+00-3.31676204E-04
 1  5 5.15346986E-04-1.83670782E-04 0.00000000E+00 0.00000000E+00 0.00000000E+00
 1  6 0.00000000E+00 0.00000000E+00 4.90726218E-06 0.00000000E+00-8.80538923E-05
 1  7 0.00000000E+00 8.14701092E-05 0.00000000E+00 0.00000000E+00 0.00000000E+00
 1  8 5.05356859E-04 9.99164403E-04-2.52939156E-04 2.39105255E-04 0.00000000E+00
 1  9-1.29241437E-04 4.44863967E-04 0.00000000E+00-3.06638408E-04 2.02896045E-05
 1 10 3.96783201E-05-5.99679246E-05 0.00000000E+00 1.19255819E-04 0.00000000E+00
 1 11 5.05356859E-04 9.99164403E-04-2.52939156E-04-2.39105255E-04 0.00000000E+00
 1 12-1.29241437E-04-4.44863967E-04 0.00000000E+00-3.06638408E-04 2.02896045E-05
 1 13 3.96783201E-05-5.99679246E-05 0.00000000E+00-1.19255819E-04 0.00000000E+00
 2  1-8.54355322E-03 5.04118181E-01 1.32174249E-01 2.83563006E-01 0.00000000E+00
 2  2 0.00000000E+00 4.47603402E-02 0.00000000E+00 0.00000000E+00 6.41669502E-02
 2  3 0.00000000E+00 0.00000000E+00 1.24704396E-02 2.70424085E-03-3.81300160E-03
 2  4 1.10876074E-03 0.00000000E+00 0.00000000E+00 0.00000000E+00 4.94234521E-03
 2  5-8.04157778E-03 3.09923257E-03 0.00000000E+00 0.00000000E+00 0.00000000E+00
 2  6 0.00000000E+00 0.00000000E+00-8.21674079E-04 0.00000000E+00 3.01815552E-03
 2  7 0.00000000E+00-1.91576406E-03 0.00000000E+00 0.00000000E+00 0.00000000E+00
 2  8 8.92062593E-02 7.30822648E-02 6.24492371E-03 1.04285611E-02 0.00000000E+00
 2  9-7.50033813E-03 9.85051210E-03 0.00000000E+00-5.07939825E-03 1.19846363E-03
 2 10-1.17321012E-03-2.52535153E-05 0.00000000E+00-1.96081345E-03 0.00000000E+00
 2 11 8.92062593E-02 7.30822648E-02 6.24492371E-03-1.04285611E-02 0.00000000E+00
 2 12-7.50033813E-03-9.85051210E-03 0.00000000E+00-5.07939825E-03 1.19846363E-03
 2 13-1.17321012E-03-2.52535153E-05 0.00000000E+00 1.96081345E-03 0.00000000E+00
 3  1 0.00000000E+00 0.00000000E+00 0.00000000E+00 0.00000000E+00-2.82771576E-01
 3  2 0.00000000E+00 0.00000000E+00-3.40550950E-01 0.00000000E+00 0.00000000E+00
 3  3-1.60517055E-01 0.00000000E+00 0.00000000E+00 0.00000000E+00 0.00000000E+00
 3  4 0.00000000E+00 0.00000000E+00-1.31344001E-02 0.00000000E+00 0.00000000E+00
 3  5 0.00000000E+00 0.00000000E+00 0.00000000E+00-2.26478701E-02 0.00000000E+00
 3  6-2.43115411E-03 0.00000000E+00 0.00000000E+00 0.00000000E+00 0.00000000E+00
 3  7 3.57627287E-03 0.00000000E+00-3.14537359E-04 0.00000000E+00 0.00000000E+00
 3  8 1.41565151E-01 2.19679751E-01 6.22649775E-02 9.25539395E-03 0.00000000E+00
 3  9-1.28922514E-02 1.92159158E-02 0.00000000E+00-2.40602901E-02 1.60834946E-03
 3 10-3.71194774E-03 2.10359829E-03 0.00000000E+00-5.72901560E-03 0.00000000E+00
 3 11-1.41565151E-01-2.19679751E-01-6.22649775E-02 9.25539395E-03 0.00000000E+00
 3 12 1.28922514E-02 1.92159158E-02 0.00000000E+00 2.40602901E-02-1.60834946E-03
 3 13 3.71194774E-03-2.10359829E-03 0.00000000E+00-5.72901560E-03 0.00000000E+00
 4  1 2.16970548E-03 1.80406380E-01 5.39861523E-02 2.79510301E-01 0.00000000E+00
 4  2 0.00000000E+00-3.12203407E-01 0.00000000E+00 0.00000000E+00-3.81529325E-01
 4  3 0.00000000E+00 0.00000000E+00-2.75250477E-01 1.70883185E-05 5.62471264E-03
 4  4-5.64180096E-03 0.00000000E+00 0.00000000E+00 0.00000000E+00 4.19464847E-03
 4  5 1.41040079E-02-1.82986563E-02 0.00000000E+00 0.00000000E+00 0.00000000E+00
 4  6 0.00000000E+00 0.00000000E+00-7.78957930E-04 0.00000000E+00-2.16502570E-03
 4  7 0.00000000E+00 3.21010743E-03 0.00000000E+00 0.00000000E+00 0.00000000E+00
 4  8-8.66133896E-02-1.40452203E-01-2.62488072E-02-9.55219308E-03 0.00000000E+00
 4  9-5.46850550E-04-2.16653004E-02 0.00000000E+00-1.19803670E-02-3.93870847E-03
 4 10 1.76938359E-03 2.16932488E-03 0.00000000E+00 7.95166446E-04 0.00000000E+00
 4 11-8.66133896E-02-1.40452203E-01-2.62488072E-02 9.55219308E-03 0.00000000E+00
 4 12-5.46850550E-04 2.16653004E-02 0.00000000E+00-1.19803670E-02-3.93870847E-03
 4 13 1.76938359E-03 2.16932488E-03 0.00000000E+00-7.95166446E-04 0.00000000E+00
 5  1 0.00000000E+00 0.00000000E+00 0.00000000E+00 0.00000000E+00 0.00000000E+00
 5  2-3.57145767E-01 0.00000000E+00 0.00000000E+00-4.44364453E-01 0.00000000E+00
 5  3 0.00000000E+00-3.75515734E-01 0.00000000E+00 0.00000000E+00 0.00000000E+00
 5  4 0.00000000E+00 0.00000000E+00 0.00000000E+00-5.24590280E-03 0.00000000E+00
 5  5 0.00000000E+00 0.00000000E+00 0.00000000E+00 0.00000000E+00-1.81283152E-02
 5  6 0.00000000E+00 4.13844044E-03 0.00000000E+00-3.77065313E-03 0.00000000E+00
 5  7 0.00000000E+00 0.00000000E+00 0.00000000E+00-1.78164735E-03 0.00000000E+00
 5  8 0.00000000E+00 0.00000000E+00 0.00000000E+00 0.00000000E+00-1.00194624E-02
 5  9 0.00000000E+00 0.00000000E+00-3.12742587E-02 0.00000000E+00 0.00000000E+00
 5 10 0.00000000E+00 0.00000000E+00-4.13449299E-03 0.00000000E+00 2.88930451E-03
 5 11 0.00000000E+00 0.00000000E+00 0.00000000E+00 0.00000000E+00-1.00194624E-02
 5 12 0.00000000E+00 0.00000000E+00-3.12742587E-02 0.00000000E+00 0.00000000E+00
 5 13 0.00000000E+00 0.00000000E+00 4.13449299E-03 0.00000000E+00 2.88930451E-03
 6  1-2.99916729E-02 1.02540880E-01 3.84903287E-02 1.54004796E+00 0.00000000E+00
 6  2 0.00000000E+00 7.99030975E-02 0.00000000E+00 0.00000000E+00 1.94593609E-01
 6  3 0.00000000E+00 0.00000000E+00 4.61760400E-01-2.55060663E-03 1.52955723E-03
 6  4 1.02104939E-03 0.00000000E+00 0.00000000E+00 0.00000000E+00 3.89616789E-02
 6  5-4.85511370E-02 9.58945810E-03 0.00000000E+00 0.00000000E+00 0.00000000E+00
 6  6 0.00000000E+00 0.00000000E+00-4.13463674E-03 0.00000000E+00 1.01485732E-02
 6  7 0.00000000E+00-4.60137589E-03 0.00000000E+00 0.00000000E+00 0.00000000E+00
 6  8-2.70714421E-02-2.78375447E-01-9.19525781E-01 5.76666842E-03 0.00000000E+00
 6  9-1.76097215E-03-1.41326209E-01 0.00000000E+00 1.11095200E-01-4.95787967E-03
 6 10 9.12323353E-03-4.16535386E-03 0.00000000E+00 1.75311057E-02 0.00000000E+00
 6 11-2.70714421E-02-2.78375447E-01-9.19525781E-01-5.76666842E-03 0.00000000E+00
 6 12-1.76097215E-03 1.41326209E-01 0.00000000E+00 1.11095200E-01-4.95787967E-03
 6 13 9.12323353E-03-4.16535386E-03 0.00000000E+00-1.75311057E-02 0.00000000E+00
 7  1 0.00000000E+00 0.00000000E+00 0.00000000E+00 0.00000000E+00 1.36331828E-01
 7  2 0.00000000E+00 0.00000000E+00 2.01729718E-01 0.00000000E+00 0.00000000E+00
 7  3 8.35317787E-01 0.00000000E+00 0.00000000E+00 0.00000000E+00 0.00000000E+00
 7  4 0.00000000E+00 0.00000000E+00-2.93330842E-03 0.00000000E+00 0.00000000E+00
 7  5 0.00000000E+00 0.00000000E+00 0.00000000E+00 5.97516342E-02 0.00000000E+00
 7  6 1.59479026E-03 0.00000000E+00 0.00000000E+00 0.00000000E+00 0.00000000E+00
 7  7-3.14234024E-03 0.00000000E+00 1.00270458E-03 0.00000000E+00 0.00000000E+00
 7  8 1.75593713E-02 1.35373369E-01 1.76958196E+00-1.19348943E-02 0.00000000E+00
 7  9 1.06717207E-02 1.33583146E-01 0.00000000E+00-1.07826381E-01 8.02160063E-03
 7 10-7.51086182E-03-5.10738807E-04 0.00000000E+00-9.41836222E-03 0.00000000E+00
 7 11-1.75593713E-02-1.35373369E-01-1.76958196E+00-1.19348943E-02 0.00000000E+00
 7 12-1.06717207E-02 1.33583146E-01 0.00000000E+00 1.07826381E-01-8.02160063E-03
 7 13 7.51086182E-03 5.10738807E-04 0.00000000E+00-9.41836222E-03 0.00000000E+00
 8  1 0.00000000E+00 0.00000000E+00 0.00000000E+00 0.00000000E+00 1.05918439E-01
 8  2 0.00000000E+00 0.00000000E+00 2.77540976E-01 0.00000000E+00 0.00000000E+00
 8  3 1.23932921E+00 0.00000000E+00 0.00000000E+00 0.00000000E+00 0.00000000E+00
 8  4 0.00000000E+00 0.00000000E+00-2.72937717E-02 0.00000000E+00 0.00000000E+00
 8  5 0.00000000E+00 0.00000000E+00 0.00000000E+00 1.40135048E-01 0.00000000E+00
 8  6 2.90839682E-03 0.00000000E+00 0.00000000E+00 0.00000000E+00 0.00000000E+00
 8  7-2.06983405E-02 0.00000000E+00 1.67963167E-02 0.00000000E+00 0.00000000E+00
 8  8 9.93993804E-02 1.54868135E+00-5.97429431E-01 4.72605684E-02 0.00000000E+00
 8  9-3.03513126E-02 4.18328030E-02 0.00000000E+00 2.03877652E-02 1.47163547E-02
 8 10-1.05701732E-02-4.14618150E-03 0.00000000E+00-2.98725406E-02 0.00000000E+00
 8 11-9.93993804E-02-1.54868135E+00 5.97429431E-01 4.72605684E-02 0.00000000E+00
 8 12 3.03513126E-02 4.18328030E-02 0.00000000E+00-2.03877652E-02-1.47163547E-02
 8 13 1.05701732E-02 4.14618150E-03 0.00000000E+00-2.98725406E-02 0.00000000E+00
 9  1 2.40787311E-02 2.02383745E-01 2.88114825E-02 7.60185767E-01 0.00000000E+00
 9  2 0.00000000E+00 9.49166530E-02 0.00000000E+00 0.00000000E+00 1.62325890E-01
 9  3 0.00000000E+00 0.00000000E+00 6.99512929E-01-1.98049200E-02 1.43938873E-02
 9  4 5.41103275E-03 0.00000000E+00 0.00000000E+00 0.00000000E+00 3.45063955E-02
 9  5-2.74444592E-02-7.06193630E-03 0.00000000E+00 0.00000000E+00 0.00000000E+00
 9  6 0.00000000E+00 0.00000000E+00-9.12930220E-03 0.00000000E+00 2.10077310E-02
 9  7 0.00000000E+00-8.75948684E-03 0.00000000E+00 0.00000000E+00 0.00000000E+00
 9  8-7.99682043E-02-1.45563621E+00 5.84010362E-01-3.10464118E-02 0.00000000E+00
 9  9 1.75685065E-02 1.97682514E-01 0.00000000E+00 6.10443327E-02-2.08817883E-03
 9 10 1.44039361E-02-1.23157572E-02 0.00000000E+00 9.57175056E-03 0.00000000E+00
 9 11-7.99682043E-02-1.45563621E+00 5.84010362E-01 3.10464118E-02 0.00000000E+00
 9 12 1.75685065E-02-1.97682514E-01 0.00000000E+00 6.10443327E-02-2.08817883E-03
 9 13 1.44039361E-02-1.23157572E-02 0.00000000E+00-9.57175056E-03 0.00000000E+00
10  1 3.37961068E-02 7.40774451E-02-4.11567772E-02 4.60018359E+00 0.00000000E+00
10  2 0.00000000E+00-2.46726137E-01 0.00000000E+00 0.00000000E+00-1.04210589E-01
10  3 0.00000000E+00 0.00000000E+00 2.67622097E+00-1.12108694E-02 2.76964269E-02
10  4-1.64855575E-02 0.00000000E+00 0.00000000E+00 0.00000000E+00 1.93162755E-01
10  5-2.84696599E-01 9.15338445E-02 0.00000000E+00 0.00000000E+00 0.00000000E+00
10  6 0.00000000E+00 0.00000000E+00-1.08027122E-02 0.00000000E+00 3.40997851E-02
10  7 0.00000000E+00-1.96064258E-02 0.00000000E+00 0.00000000E+00 0.00000000E+00
10  8 3.36428615E-02-2.28801884E+00-4.68726793E-01-2.34985214E-02 0.00000000E+00
10  9 1.28398347E-02-9.38610351E-01 0.00000000E+00 6.22533905E-01-4.52133243E-02
10 10 4.24952787E-02 2.71804561E-03 0.00000000E+00 6.44016363E-02 0.00000000E+00
10 11 3.36428615E-02-2.28801884E+00-4.68726793E-01 2.34985214E-02 0.00000000E+00
10 12 1.28398347E-02 9.38610351E-01 0.00000000E+00 6.22533905E-01-4.52133243E-02
10 13 4.24952787E-02 2.71804561E-03 0.00000000E+00-6.44016363E-02 0.00000000E+00
11  1 0.00000000E+00 0.00000000E+00 0.00000000E+00 0.00000000E+00 0.00000000E+00
11  2-2.58672873E-01 0.00000000E+00 0.00000000E+00-7.72843095E-01 0.00000000E+00
11  3 0.00000000E+00 1.16985241E+00 0.00000000E+00 0.00000000E+00 0.00000000E+00
11  4 0.00000000E+00 0.00000000E+00 0.00000000E+00-8.69255752E-03 0.00000000E+00
11  5 0.00000000E+00 0.00000000E+00 0.00000000E+00 0.00000000E+00 3.62256066E-02
11  6 0.00000000E+00-6.92237762E-03 0.00000000E+00 6.04031968E-03 0.00000000E+00
11  7 0.00000000E+00 0.00000000E+00 0.00000000E+00 3.24702447E-03 0.00000000E+00
11  8 0.00000000E+00 0.00000000E+00 0.00000000E+00 0.00000000E+00-1.28647230E-02
11  9 0.00000000E+00 0.00000000E+00 1.35672348E-02 0.00000000E+00 0.00000000E+00
11 10 0.00000000E+00 0.00000000E+00-1.94354952E-02 0.00000000E+00 1.41984666E-02
11 11 0.00000000E+00 0.00000000E+00 0.00000000E+00 0.00000000E+00-1.28647230E-02
11 12 0.00000000E+00 0.00000000E+00 1.35672348E-02 0.00000000E+00 0.00000000E+00
11 13 0.00000000E+00 0.00000000E+00 1.94354952E-02 0.00000000E+00 1.41984666E-02
12  1-1.52053694E-02-1.14223482E-01-1.88987228E-02-6.41122711E-01 0.00000000E+00
12  2 0.00000000E+00-5.42699765E-02 0.00000000E+00 0.00000000E+00-1.51002898E-01
12  3 0.00000000E+00 0.00000000E+00-1.30360254E+00-2.66119240E-02-1.01489646E-02
12  4 3.67608887E-02 0.00000000E+00 0.00000000E+00 0.00000000E+00 1.28268203E-01
12  5 1.32653010E-02-1.41533504E-01 0.00000000E+00 0.00000000E+00 0.00000000E+00
12  6 0.00000000E+00 0.00000000E+00-1.62963055E-02 0.00000000E+00 9.19671566E-03
12  7 0.00000000E+00 1.26670725E-02 0.00000000E+00 0.00000000E+00 0.00000000E+00
12  8-8.90248692E-03 9.27117169E-01-2.51113467E-01-2.12950443E-02 0.00000000E+00
12  9-3.75684234E-02 5.32863767E-01 0.00000000E+00 6.80104715E-01 4.74473193E-02
12 10-4.59278731E-03-4.28545319E-02 0.00000000E+00 2.38144311E-02 0.00000000E+00
12 11-8.90248692E-03 9.27117169E-01-2.51113467E-01 2.12950443E-02 0.00000000E+00
12 12-3.75684234E-02-5.32863767E-01 0.00000000E+00 6.80104715E-01 4.74473193E-02
12 13-4.59278731E-03-4.28545319E-02 0.00000000E+00-2.38144311E-02 0.00000000E+00
13  1 0.00000000E+00 0.00000000E+00 0.00000000E+00 0.00000000E+00-2.76821637E-01
13  2 0.00000000E+00 0.00000000E+00 1.91394690E-02 0.00000000E+00 0.00000000E+00
13  3 2.95683782E+00 0.00000000E+00 0.00000000E+00 0.00000000E+00 0.00000000E+00
13  4 0.00000000E+00 0.00000000E+00-2.55901526E-02 0.00000000E+00 0.00000000E+00
13  5 0.00000000E+00 0.00000000E+00 0.00000000E+00 4.59997162E-01 0.00000000E+00
13  6-1.99871089E-04 0.00000000E+00 0.00000000E+00 0.00000000E+00 0.00000000E+00
13  7-2.96814808E-02 0.00000000E+00 2.99496360E-02 0.00000000E+00 0.00000000E+00
13  8-3.03439998E-02 1.64863205E+00 1.47432585E+00 4.20579540E-02 0.00000000E+00
13  9-3.43105972E-02 9.21218165E-01 0.00000000E+00-7.63386856E-01 5.08915671E-02
13 10-5.40411670E-02 3.14959996E-03 0.00000000E+00-9.19302023E-02 0.00000000E+00
13 11 3.03439998E-02-1.64863205E+00-1.47432585E+00 4.20579540E-02 0.00000000E+00
13 12 3.43105972E-02 9.21218165E-01 0.00000000E+00 7.63386856E-01-5.08915671E-02
13 13 5.40411670E-02-3.14959996E-03 0.00000000E+00-9.19302023E-02 0.00000000E+00
14  1 0.00000000E+00 0.00000000E+00 0.00000000E+00 0.00000000E+00 0.00000000E+00
14  2 0.00000000E+00 0.00000000E+00 0.00000000E+00 0.00000000E+00 0.00000000E+00
14  3 0.00000000E+00 0.00000000E+00 0.00000000E+00 0.00000000E+00 0.00000000E+00
14  4 0.00000000E+00-2.71489883E-02 0.00000000E+00 0.00000000E+00 0.00000000E+00
14  5 0.00000000E+00 0.00000000E+00 2.92264899E-02 0.00000000E+00 0.00000000E+00
14  6 0.00000000E+00 0.00000000E+00 0.00000000E+00 0.00000000E+00 0.00000000E+00
14  7 0.00000000E+00 0.00000000E+00 0.00000000E+00 0.00000000E+00 1.62400192E-02
14  8 0.00000000E+00 0.00000000E+00 0.00000000E+00 0.00000000E+00-6.03478556E-02
14  9 0.00000000E+00 0.00000000E+00 8.48628310E-01 0.00000000E+00 0.00000000E+00
14 10 0.00000000E+00 0.00000000E+00 1.24809649E-02 0.00000000E+00-2.51905029E-02
14 11 0.00000000E+00 0.00000000E+00 0.00000000E+00 0.00000000E+00 6.03478556E-02
14 12 0.00000000E+00 0.00000000E+00-8.48628310E-01 0.00000000E+00 0.00000000E+00
14 13 0.00000000E+00 0.00000000E+00 1.24809649E-02 0.00000000E+00 2.51905029E-02
15  1 0.00000000E+00 0.00000000E+00 0.00000000E+00 0.00000000E+00 0.00000000E+00
15  2 2.38479888E-02 0.00000000E+00 0.00000000E+00 5.72565080E-02 0.00000000E+00
15  3 0.00000000E+00 1.13776116E+00 0.00000000E+00 0.00000000E+00 0.00000000E+00
15  4 0.00000000E+00 0.00000000E+00 0.00000000E+00-2.44659404E-02 0.00000000E+00
15  5 0.00000000E+00 0.00000000E+00 0.00000000E+00 0.00000000E+00 5.75785010E-03
15  6 0.00000000E+00-1.80425647E-02 0.00000000E+00 1.75863617E-02 0.00000000E+00
15  7 0.00000000E+00 0.00000000E+00 0.00000000E+00 6.62027906E-03 0.00000000E+00
15  8 0.00000000E+00 0.00000000E+00 0.00000000E+00 0.00000000E+00 7.22190542E-02
15  9 0.00000000E+00 0.00000000E+00-1.00355699E+00 0.00000000E+00 0.00000000E+00
15 10 0.00000000E+00 0.00000000E+00-4.04009550E-02 0.00000000E+00 3.65553110E-03
15 11 0.00000000E+00 0.00000000E+00 0.00000000E+00 0.00000000E+00 7.22190542E-02
15 12 0.00000000E+00 0.00000000E+00-1.00355699E+00 0.00000000E+00 0.00000000E+00
15 13 0.00000000E+00 0.00000000E+00 4.04009550E-02 0.00000000E+00 3.65553110E-03
16  1 2.63146762E-01 8.46606197E-01 2.64909024E-01-7.01276813E+00 0.00000000E+00
16  2 0.00000000E+00-5.17288672E-02 0.00000000E+00 0.00000000E+00-1.05506997E+00
16  3 0.00000000E+00 0.00000000E+00-1.70914845E+00 9.90358591E-03-9.21963920E-03
16  4-6.83946709E-04 0.00000000E+00 0.00000000E+00 0.00000000E+00-2.63605328E-01
16  5 2.30306582E-01 3.32987463E-02 0.00000000E+00 0.00000000E+00 0.00000000E+00
16  6 0.00000000E+00 0.00000000E+00 4.08233584E-02 0.00000000E+00-9.46466888E-02
16  7 0.00000000E+00 3.98764062E-02 0.00000000E+00 0.00000000E+00 0.00000000E+00
16  8-2.74413722E-02 2.91927329E+00 6.09452840E-01 7.72813403E-02 0.00000000E+00
16  9-7.87994063E-02 1.14367641E+00 0.00000000E+00-7.46200052E-01 6.45960604E-02
16 10-1.05795548E-01 4.11994879E-02 0.00000000E+00-1.53571067E-01 0.00000000E+00
16 11-2.74413722E-02 2.91927329E+00 6.09452840E-01-7.72813403E-02 0.00000000E+00
16 12-7.87994063E-02-1.14367641E+00 0.00000000E+00-7.46200052E-01 6.45960604E-02
16 13-1.05795548E-01 4.11994879E-02 0.00000000E+00 1.53571067E-01 0.00000000E+00
17  1 0.00000000E+00 0.00000000E+00 0.00000000E+00 0.00000000E+00 2.66419178E-02
17  2 0.00000000E+00 0.00000000E+00 1.67296033E-01 0.00000000E+00 0.00000000E+00
17  3 1.62009561E+00 0.00000000E+00 0.00000000E+00 0.00000000E+00 0.00000000E+00
17  4 0.00000000E+00 0.00000000E+00-3.23829544E-03 0.00000000E+00 0.00000000E+00
17  5 0.00000000E+00 0.00000000E+00 0.00000000E+00 6.94812627E-02 0.00000000E+00
17  6 1.21624940E-02 0.00000000E+00 0.00000000E+00 0.00000000E+00 0.00000000E+00
17  7-1.11940613E-02 0.00000000E+00-5.12363675E-03 0.00000000E+00 0.00000000E+00
17  8-9.13894244E-03 8.80296474E-01 6.37881496E-02 6.96755435E-02 0.00000000E+00
17  9 5.90453272E-02-6.40745854E-01 0.00000000E+00-1.04741575E+00-5.02673807E-03
17 10-7.74561761E-03 1.27723557E-02 0.00000000E+00-1.11345799E-02 0.00000000E+00
17 11 9.13894244E-03-8.80296474E-01-6.37881496E-02 6.96755435E-02 0.00000000E+00
17 12-5.90453272E-02-6.40745854E-01 0.00000000E+00 1.04741575E+00 5.02673807E-03
17 13 7.74561761E-03-1.27723557E-02 0.00000000E+00-1.11345799E-02 0.00000000E+00
18  1 0.00000000E+00 0.00000000E+00 0.00000000E+00 0.00000000E+00-1.96411729E-01
18  2 0.00000000E+00 0.00000000E+00-1.22357544E+00 0.00000000E+00 0.00000000E+00
18  3-8.40601607E-01 0.00000000E+00 0.00000000E+00 0.00000000E+00 0.00000000E+00
18  4 0.00000000E+00 0.00000000E+00-2.20065336E-04 0.00000000E+00 0.00000000E+00
18  5 0.00000000E+00 0.00000000E+00 0.00000000E+00 6.06706057E-02 0.00000000E+00
18  6-1.09437591E-03 0.00000000E+00 0.00000000E+00 0.00000000E+00 0.00000000E+00
18  7-5.52460484E-03 0.00000000E+00 6.99286420E-03 0.00000000E+00 0.00000000E+00
18  8-1.36531423E-01-1.41561586E+00-7.59011473E-01 7.22122539E-02 0.00000000E+00
18  9-5.66200719E-02-1.46482321E+00 0.00000000E+00 1.06949124E+00-5.01453232E-02
18 10 4.25616306E-02 7.58369258E-03 0.00000000E+00 8.51417989E-02 0.00000000E+00
18 11 1.36531423E-01 1.41561586E+00 7.59011473E-01 7.22122539E-02 0.00000000E+00
18 12 5.66200719E-02-1.46482321E+00 0.00000000E+00-1.06949124E+00 5.01453232E-02
18 13-4.25616306E-02-7.58369258E-03 0.00000000E+00 8.51417989E-02 0.00000000E+00
19  1-3.22100206E-01-9.19888110E-01-2.53331034E-01-1.92116787E+00 0.00000000E+00
19  2 0.00000000E+00-1.83390379E-01 0.00000000E+00 0.00000000E+00-6.21845230E-01
19  3 0.00000000E+00 0.00000000E+00-2.82781994E-01 9.64822498E-03-7.53463922E-03
19  4-2.11358576E-03 0.00000000E+00 0.00000000E+00 0.00000000E+00 2.22377405E-01
19  5-2.17690871E-01-4.68653403E-03 0.00000000E+00 0.00000000E+00 0.00000000E+00
19  6 0.00000000E+00 0.00000000E+00-2.43626007E-02 0.00000000E+00 6.21335960E-02
19  7 0.00000000E+00-2.94477372E-02 0.00000000E+00 0.00000000E+00 0.00000000E+00
19  8 1.09556221E-01 9.09965048E-01 2.81711129E-01-1.29630314E-01 0.00000000E+00
19  9 1.01496633E-01 1.04393430E+00 0.00000000E+00-8.26447712E-01-8.36035227E-03
19 10 6.49242876E-03 1.86792351E-03 0.00000000E+00 3.71737627E-02 0.00000000E+00
19 11 1.09556221E-01 9.09965048E-01 2.81711129E-01 1.29630314E-01 0.00000000E+00
19 12 1.01496633E-01-1.04393430E+00 0.00000000E+00-8.26447712E-01-8.36035227E-03
19 13 6.49242876E-03 1.86792351E-03 0.00000000E+00-3.71737627E-02 0.00000000E+00
20  1 0.00000000E+00 0.00000000E+00 0.00000000E+00 0.00000000E+00 0.00000000E+00
20  2-6.93743281E-03 0.00000000E+00 0.00000000E+00 4.97715225E-02 0.00000000E+00
20  3 0.00000000E+00 7.10838096E-01 0.00000000E+00 0.00000000E+00 0.00000000E+00
20  4 0.00000000E+00 0.00000000E+00 0.00000000E+00-1.44761992E-02 0.00000000E+00
20  5 0.00000000E+00 0.00000000E+00 0.00000000E+00 0.00000000E+00 1.17329628E+00
20  6 0.00000000E+00-1.05073120E-02 0.00000000E+00-1.06428221E-03 0.00000000E+00
20  7 0.00000000E+00 0.00000000E+00 0.00000000E+00 1.51613206E-02 0.00000000E+00
20  8 0.00000000E+00 0.00000000E+00 0.00000000E+00 0.00000000E+00 4.11665217E-02
20  9 0.00000000E+00 0.00000000E+00-6.76309085E-01 0.00000000E+00 0.00000000E+00
20 10 0.00000000E+00 0.00000000E+00 2.31947762E-02 0.00000000E+00 7.19697782E-02
20 11 0.00000000E+00 0.00000000E+00 0.00000000E+00 0.00000000E+00 4.11665217E-02
20 12 0.00000000E+00 0.00000000E+00-6.76309085E-01 0.00000000E+00 0.00000000E+00
20 13 0.00000000E+00 0.00000000E+00-2.31947762E-02 0.00000000E+00 7.19697782E-02
21  1 0.00000000E+00 0.00000000E+00 0.00000000E+00 0.00000000E+00-1.95503513E-02
21  2 0.00000000E+00 0.00000000E+00-1.86834858E+00 0.00000000E+00 0.00000000E+00
21  3-2.76889079E+00 0.00000000E+00 0.00000000E+00 0.00000000E+00 0.00000000E+00
21  4 0.00000000E+00 0.00000000E+00-1.40220911E-02 0.00000000E+00 0.00000000E+00
21  5 0.00000000E+00 0.00000000E+00 0.00000000E+00-1.74108865E+00 0.00000000E+00
21  6 5.01867353E-03 0.00000000E+00 0.00000000E+00 0.00000000E+00 0.00000000E+00
21  7 1.24410624E-01 0.00000000E+00-1.31143881E-01 0.00000000E+00 0.00000000E+00
21  8 4.16296421E-01-4.55209652E+00-2.50014714E-01-1.61154860E-01 0.00000000E+00
21  9 1.70349526E-01-1.77758037E+00 0.00000000E+00 1.28332067E+00-1.33723511E-01
21 10 1.31250525E-01 2.47298530E-03 0.00000000E+00 2.68637284E-01 0.00000000E+00
21 11-4.16296421E-01 4.55209652E+00 2.50014714E-01-1.61154860E-01 0.00000000E+00
21 12-1.70349526E-01-1.77758037E+00 0.00000000E+00-1.28332067E+00 1.33723511E-01
21 13-1.31250525E-01-2.47298530E-03 0.00000000E+00 2.68637284E-01 0.00000000E+00
22  1 0.00000000E+00 0.00000000E+00 0.00000000E+00 0.00000000E+00 0.00000000E+00
22  2 0.00000000E+00 0.00000000E+00 0.00000000E+00 0.00000000E+00 0.00000000E+00
22  3 0.00000000E+00 0.00000000E+00 0.00000000E+00 0.00000000E+00 0.00000000E+00
22  4 0.00000000E+00 1.49655025E-02 0.00000000E+00 0.00000000E+00 0.00000000E+00
22  5 0.00000000E+00 0.00000000E+00-1.23696276E+00 0.00000000E+00 0.00000000E+00
22  6 0.00000000E+00 0.00000000E+00 0.00000000E+00 0.00000000E+00 0.00000000E+00
22  7 0.00000000E+00 0.00000000E+00 0.00000000E+00 0.00000000E+00-2.09483541E-02
22  8 0.00000000E+00 0.00000000E+00 0.00000000E+00 0.00000000E+00 5.60334847E-02
22  9 0.00000000E+00 0.00000000E+00-6.11393716E-01 0.00000000E+00 0.00000000E+00
22 10 0.00000000E+00 0.00000000E+00-5.76850082E-02 0.00000000E+00-1.21926237E-02
22 11 0.00000000E+00 0.00000000E+00 0.00000000E+00 0.00000000E+00-5.60334847E-02
22 12 0.00000000E+00 0.00000000E+00 6.11393716E-01 0.00000000E+00 0.00000000E+00
22 13 0.00000000E+00 0.00000000E+00-5.76850082E-02 0.00000000E+00 1.21926237E-02
23  1-1.82253028E-01-4.32962403E-01-5.74234934E-02-2.56960362E+00 0.00000000E+00
23  2 0.00000000E+00-5.97441454E-02 0.00000000E+00 0.00000000E+00-4.31170530E-01
23  3 0.00000000E+00 0.00000000E+00-3.38430698E-01 7.54502752E-03 1.44557588E-03
23  4-8.99060340E-03 0.00000000E+00 0.00000000E+00 0.00000000E+00-1.31594462E+00
23  5 3.06362769E-01 1.00958185E+00 0.00000000E+00 0.00000000E+00 0.00000000E+00
23  6 0.00000000E+00 0.00000000E+00 4.40007022E-02 0.00000000E+00-8.09761947E-02
23  7 0.00000000E+00 2.19430580E-02 0.00000000E+00 0.00000000E+00 0.00000000E+00
23  8-2.32862383E-01 1.78070780E+00 2.53672428E-02 1.00177211E-01 0.00000000E+00
23  9 4.54686105E-02 2.71200113E-01 0.00000000E+00-1.02784189E+00-1.92063433E-02
23 10-3.11220585E-02 5.03284019E-02 0.00000000E+00-5.93614780E-02 0.00000000E+00
23 11-2.32862383E-01 1.78070780E+00 2.53672428E-02-1.00177211E-01 0.00000000E+00
23 12 4.54686105E-02-2.71200113E-01 0.00000000E+00-1.02784189E+00-1.92063433E-02
23 13-3.11220585E-02 5.03284019E-02 0.00000000E+00 5.93614780E-02 0.00000000E+00
24  1 1.37024236E-01 3.02236429E-01-3.48607582E-02 6.81877680E+00 0.00000000E+00
24  2 0.00000000E+00 1.15348026E-01 0.00000000E+00 0.00000000E+00 9.43935621E-01
24  3 0.00000000E+00 0.00000000E+00 2.74285358E+00-8.40739107E-04 2.87091375E-03
24  4-2.03017464E-03 0.00000000E+00 0.00000000E+00 0.00000000E+00 5.20075629E-01
24  5-1.43354863E+00 9.13472998E-01 0.00000000E+00 0.00000000E+00 0.00000000E+00
24  6 0.00000000E+00 0.00000000E+00-2.34984861E-02 0.00000000E+00 8.63833999E-02
24  7 0.00000000E+00-5.48568725E-02 0.00000000E+00 0.00000000E+00 0.00000000E+00
24  8 2.34987982E-01-4.23056352E+00-1.44693023E-01-5.77211168E-02 0.00000000E+00
24  9 6.16609643E-02-1.53393738E+00 0.00000000E+00 7.38952152E-01-6.46307718E-02
24 10 5.14469094E-02 1.31838624E-02 0.00000000E+00 1.17087142E-01 0.00000000E+00
24 11 2.34987982E-01-4.23056352E+00-1.44693023E-01 5.77211168E-02 0.00000000E+00
24 12 6.16609643E-02 1.53393738E+00 0.00000000E+00 7.38952152E-01-6.46307718E-02
24 13 5.14469094E-02 1.31838624E-02 0.00000000E+00-1.17087142E-01 0.00000000E+00
25  1-2.10871028E-01-4.04776542E-01-1.64149421E-02-3.00448510E-01 0.00000000E+00
25  2 0.00000000E+00 2.09791922E-01 0.00000000E+00 0.00000000E+00-3.20604321E-01
25  3 0.00000000E+00 0.00000000E+00-2.53749328E-01-2.17908143E-02 1.68351818E-02
25  4 4.95563252E-03 0.00000000E+00 0.00000000E+00 0.00000000E+00 4.73538606E-01
25  5-2.67099340E-01-2.06439266E-01 0.00000000E+00 0.00000000E+00 0.00000000E+00
25  6 0.00000000E+00 0.00000000E+00 4.89733750E-02 0.00000000E+00-1.31951478E-01
25  7 0.00000000E+00 6.62468005E-02 0.00000000E+00 0.00000000E+00 0.00000000E+00
25  8-9.33123267E-01 1.29507089E+00-3.53824318E-01 1.13685277E-01 0.00000000E+00
25  9-8.86799928E-02 1.70281007E-01 0.00000000E+00 2.64675926E-02 1.12947342E-01
25 10-1.46887887E-01 3.39405451E-02 0.00000000E+00 8.27039355E-02 0.00000000E+00
25 11-9.33123267E-01 1.29507089E+00-3.53824318E-01-1.13685277E-01 0.00000000E+00
25 12-8.86799928E-02-1.70281007E-01 0.00000000E+00 2.64675926E-02 1.12947342E-01
25 13-1.46887887E-01 3.39405451E-02 0.00000000E+00-8.27039355E-02 0.00000000E+00
26  1 0.00000000E+00 0.00000000E+00 0.00000000E+00 0.00000000E+00 3.19832075E-01
26  2 0.00000000E+00 0.00000000E+00-4.24625455E-01 0.00000000E+00 0.00000000E+00
26  3 5.60278556E-01 0.00000000E+00 0.00000000E+00 0.00000000E+00 0.00000000E+00
26  4 0.00000000E+00 0.00000000E+00-7.92460750E-04 0.00000000E+00 0.00000000E+00
26  5 0.00000000E+00 0.00000000E+00 0.00000000E+00 6.93964577E-01 0.00000000E+00
26  6-2.53337449E-02 0.00000000E+00 0.00000000E+00 0.00000000E+00 0.00000000E+00
26  7 1.28689427E-01 0.00000000E+00-9.47006415E-02 0.00000000E+00 0.00000000E+00
26  8 8.55501928E-01-6.01562019E-01 5.81463375E-01-1.56301048E-01 0.00000000E+00
26  9 9.51963764E-02 7.23757524E-02 0.00000000E+00-1.86056137E-02 5.10872401E-02
26 10-1.75194024E-01 1.24106784E-01 0.00000000E+00 1.24155304E-01 0.00000000E+00
26 11-8.55501928E-01 6.01562019E-01-5.81463375E-01-1.56301048E-01 0.00000000E+00
26 12-9.51963764E-02 7.23757524E-02 0.00000000E+00 1.86056137E-02-5.10872401E-02
26 13 1.75194024E-01-1.24106784E-01 0.00000000E+00 1.24155304E-01 0.00000000E+00
27  1 0.00000000E+00 0.00000000E+00 0.00000000E+00 0.00000000E+00 0.00000000E+00
27  2 8.51309700E-02 0.00000000E+00 0.00000000E+00-5.65504791E-02 0.00000000E+00
27  3 0.00000000E+00-1.36968974E-01 0.00000000E+00 0.00000000E+00 0.00000000E+00
27  4 0.00000000E+00 0.00000000E+00 0.00000000E+00-1.88888776E-02 0.00000000E+00
27  5 0.00000000E+00 0.00000000E+00 0.00000000E+00 0.00000000E+00-3.51151541E-01
27  6 0.00000000E+00 1.10931216E-02 0.00000000E+00-1.11447044E-01 0.00000000E+00
27  7 0.00000000E+00 0.00000000E+00 0.00000000E+00 9.65640598E-02 0.00000000E+00