 !Step 4: single point gmcpt calculation averaging 3 states
 !        for H2S+ at H2S structure. The RHF orbitals at
 !        the MP2 optimized structure is taken as the initial
 !        guess of orbitals in the $VEC group. 3 states are asked
 !        for because state 4 and 5 are a bit higher. Now with the DMO group.
 !        The calculation should generate the DMO for diabatization calculation.
 !        Now with the REFDET group to do diabatization.
 $system kdiag=3 mwords=100 memddi=1000 parall=.t. $end
 $contrl runtyp=energy ispher=1 $end
 $contrl icut=9 itol=20 inttyp=rysquad qmttol=1.0d-05 nosym=1 $end
 $scf    npunch=2 conv=1.0d-06 dirscf=.t.      $end
 $contrl scftyp=mcscf  mult=2 maxit=200 icharg=1 mplevl=2 $end
 $guess  guess=moread norb=67 purify=.t. $end
 $basis  gbasis=cct $end
 $mcscf  cistep=gmcci fullnr=.t. finci=mos
         acurcy=1.d-6 maxit=100 $end
 $trans  dirtrf=.t. $end
 $mrmp   mrpt=gmcpt rdvecs=.f. $end
 $gmcpt  nmofzc=1 nmodoc=4 nmoact=6 nelact=7 stsym(1)=A
         reftyp=ormas nspace=1 mstart(1)=6 mine(1)=7 maxe(1)=7
         kstate(1)=1,1,1
         wstate(1)=1,1,1
         iwgt=0 thrwgt=-1.0 krot=.f. kszdoe=.f. knospn=.f.
         thrde=-1.0 edshft=0.02 $end
 $data
 H2S+ 5 states calculation at H2S structure.
 C1
